c Theorem B raw encoding: (P3alt,Dih(3)) vs (K_3,Dih(3)), n=4; SAT expected (witness leg); regenerated 2026-08-13
p cnf 6 48
2 4 0
1 4 0
4 2 0
1 2 0
4 1 0
2 1 0
3 5 0
1 5 0
5 3 0
1 3 0
5 1 0
3 1 0
3 6 0
2 6 0
6 3 0
2 3 0
6 2 0
3 2 0
5 6 0
4 6 0
6 5 0
4 5 0
6 4 0
5 4 0
-1 -2 -4 0
-2 -1 -4 0
-1 -4 -2 0
-4 -1 -2 0
-2 -4 -1 0
-4 -2 -1 0
-1 -3 -5 0
-3 -1 -5 0
-1 -5 -3 0
-5 -1 -3 0
-3 -5 -1 0
-5 -3 -1 0
-2 -3 -6 0
-3 -2 -6 0
-2 -6 -3 0
-6 -2 -3 0
-3 -6 -2 0
-6 -3 -2 0
-4 -5 -6 0
-5 -4 -6 0
-4 -6 -5 0
-6 -4 -5 0
-5 -6 -4 0
-6 -5 -4 0
