c Theorem B raw encoding: (P3alt,Dih(3)) vs (K_4,Dih(4)), n=6; SAT expected (witness leg); regenerated 2026-08-13
p cnf 15 240
2 6 0
1 6 0
6 2 0
1 2 0
6 1 0
2 1 0
3 7 0
1 7 0
7 3 0
1 3 0
7 1 0
3 1 0
4 8 0
1 8 0
8 4 0
1 4 0
8 1 0
4 1 0
5 9 0
1 9 0
9 5 0
1 5 0
9 1 0
5 1 0
3 10 0
2 10 0
10 3 0
2 3 0
10 2 0
3 2 0
4 11 0
2 11 0
11 4 0
2 4 0
11 2 0
4 2 0
5 12 0
2 12 0
12 5 0
2 5 0
12 2 0
5 2 0
4 13 0
3 13 0
13 4 0
3 4 0
13 3 0
4 3 0
5 14 0
3 14 0
14 5 0
3 5 0
14 3 0
5 3 0
5 15 0
4 15 0
15 5 0
4 5 0
15 4 0
5 4 0
7 10 0
6 10 0
10 7 0
6 7 0
10 6 0
7 6 0
8 11 0
6 11 0
11 8 0
6 8 0
11 6 0
8 6 0
9 12 0
6 12 0
12 9 0
6 9 0
12 6 0
9 6 0
8 13 0
7 13 0
13 8 0
7 8 0
13 7 0
8 7 0
9 14 0
7 14 0
14 9 0
7 9 0
14 7 0
9 7 0
9 15 0
8 15 0
15 9 0
8 9 0
15 8 0
9 8 0
11 13 0
10 13 0
13 11 0
10 11 0
13 10 0
11 10 0
12 14 0
10 14 0
14 12 0
10 12 0
14 10 0
12 10 0
12 15 0
11 15 0
15 12 0
11 12 0
15 11 0
12 11 0
14 15 0
13 15 0
15 14 0
13 14 0
15 13 0
14 13 0
-1 -2 -3 -6 -7 -10 0
-3 -2 -1 -10 -7 -6 0
-1 -7 -6 -3 -2 -10 0
-6 -7 -1 -10 -2 -3 0
-6 -2 -10 -1 -7 -3 0
-10 -2 -6 -3 -7 -1 0
-3 -7 -10 -1 -2 -6 0
-10 -7 -3 -6 -2 -1 0
-1 -2 -4 -6 -8 -11 0
-4 -2 -1 -11 -8 -6 0
-1 -8 -6 -4 -2 -11 0
-6 -8 -1 -11 -2 -4 0
-6 -2 -11 -1 -8 -4 0
-11 -2 -6 -4 -8 -1 0
-4 -8 -11 -1 -2 -6 0
-11 -8 -4 -6 -2 -1 0
-1 -2 -5 -6 -9 -12 0
-5 -2 -1 -12 -9 -6 0
-1 -9 -6 -5 -2 -12 0
-6 -9 -1 -12 -2 -5 0
-6 -2 -12 -1 -9 -5 0
-12 -2 -6 -5 -9 -1 0
-5 -9 -12 -1 -2 -6 0
-12 -9 -5 -6 -2 -1 0
-1 -3 -4 -7 -8 -13 0
-4 -3 -1 -13 -8 -7 0
-1 -8 -7 -4 -3 -13 0
-7 -8 -1 -13 -3 -4 0
-7 -3 -13 -1 -8 -4 0
-13 -3 -7 -4 -8 -1 0
-4 -8 -13 -1 -3 -7 0
-13 -8 -4 -7 -3 -1 0
-1 -3 -5 -7 -9 -14 0
-5 -3 -1 -14 -9 -7 0
-1 -9 -7 -5 -3 -14 0
-7 -9 -1 -14 -3 -5 0
-7 -3 -14 -1 -9 -5 0
-14 -3 -7 -5 -9 -1 0
-5 -9 -14 -1 -3 -7 0
-14 -9 -5 -7 -3 -1 0
-1 -4 -5 -8 -9 -15 0
-5 -4 -1 -15 -9 -8 0
-1 -9 -8 -5 -4 -15 0
-8 -9 -1 -15 -4 -5 0
-8 -4 -15 -1 -9 -5 0
-15 -4 -8 -5 -9 -1 0
-5 -9 -15 -1 -4 -8 0
-15 -9 -5 -8 -4 -1 0
-2 -3 -4 -10 -11 -13 0
-4 -3 -2 -13 -11 -10 0
-2 -11 -10 -4 -3 -13 0
-10 -11 -2 -13 -3 -4 0
-10 -3 -13 -2 -11 -4 0
-13 -3 -10 -4 -11 -2 0
-4 -11 -13 -2 -3 -10 0
-13 -11 -4 -10 -3 -2 0
-2 -3 -5 -10 -12 -14 0
-5 -3 -2 -14 -12 -10 0
-2 -12 -10 -5 -3 -14 0
-10 -12 -2 -14 -3 -5 0
-10 -3 -14 -2 -12 -5 0
-14 -3 -10 -5 -12 -2 0
-5 -12 -14 -2 -3 -10 0
-14 -12 -5 -10 -3 -2 0
-2 -4 -5 -11 -12 -15 0
-5 -4 -2 -15 -12 -11 0
-2 -12 -11 -5 -4 -15 0
-11 -12 -2 -15 -4 -5 0
-11 -4 -15 -2 -12 -5 0
-15 -4 -11 -5 -12 -2 0
-5 -12 -15 -2 -4 -11 0
-15 -12 -5 -11 -4 -2 0
-3 -4 -5 -13 -14 -15 0
-5 -4 -3 -15 -14 -13 0
-3 -14 -13 -5 -4 -15 0
-13 -14 -3 -15 -4 -5 0
-13 -4 -15 -3 -14 -5 0
-15 -4 -13 -5 -14 -3 0
-5 -14 -15 -3 -4 -13 0
-15 -14 -5 -13 -4 -3 0
-6 -7 -8 -10 -11 -13 0
-8 -7 -6 -13 -11 -10 0
-6 -11 -10 -8 -7 -13 0
-10 -11 -6 -13 -7 -8 0
-10 -7 -13 -6 -11 -8 0
-13 -7 -10 -8 -11 -6 0
-8 -11 -13 -6 -7 -10 0
-13 -11 -8 -10 -7 -6 0
-6 -7 -9 -10 -12 -14 0
-9 -7 -6 -14 -12 -10 0
-6 -12 -10 -9 -7 -14 0
-10 -12 -6 -14 -7 -9 0
-10 -7 -14 -6 -12 -9 0
-14 -7 -10 -9 -12 -6 0
-9 -12 -14 -6 -7 -10 0
-14 -12 -9 -10 -7 -6 0
-6 -8 -9 -11 -12 -15 0
-9 -8 -6 -15 -12 -11 0
-6 -12 -11 -9 -8 -15 0
-11 -12 -6 -15 -8 -9 0
-11 -8 -15 -6 -12 -9 0
-15 -8 -11 -9 -12 -6 0
-9 -12 -15 -6 -8 -11 0
-15 -12 -9 -11 -8 -6 0
-7 -8 -9 -13 -14 -15 0
-9 -8 -7 -15 -14 -13 0
-7 -14 -13 -9 -8 -15 0
-13 -14 -7 -15 -8 -9 0
-13 -8 -15 -7 -14 -9 0
-15 -8 -13 -9 -14 -7 0
-9 -14 -15 -7 -8 -13 0
-15 -14 -9 -13 -8 -7 0
-10 -11 -12 -13 -14 -15 0
-12 -11 -10 -15 -14 -13 0
-10 -14 -13 -12 -11 -15 0
-13 -14 -10 -15 -11 -12 0
-13 -11 -15 -10 -14 -12 0
-15 -11 -13 -12 -14 -10 0
-12 -14 -15 -10 -11 -13 0
-15 -14 -12 -13 -11 -10 0
