c Theorem B raw encoding: (P3alt,Dih(3)) vs (K_4,Dih(4)), n=7; UNSAT expected (proof leg); regenerated 2026-08-13
p cnf 21 490
2 7 0
1 7 0
7 2 0
1 2 0
7 1 0
2 1 0
3 8 0
1 8 0
8 3 0
1 3 0
8 1 0
3 1 0
4 9 0
1 9 0
9 4 0
1 4 0
9 1 0
4 1 0
5 10 0
1 10 0
10 5 0
1 5 0
10 1 0
5 1 0
6 11 0
1 11 0
11 6 0
1 6 0
11 1 0
6 1 0
3 12 0
2 12 0
12 3 0
2 3 0
12 2 0
3 2 0
4 13 0
2 13 0
13 4 0
2 4 0
13 2 0
4 2 0
5 14 0
2 14 0
14 5 0
2 5 0
14 2 0
5 2 0
6 15 0
2 15 0
15 6 0
2 6 0
15 2 0
6 2 0
4 16 0
3 16 0
16 4 0
3 4 0
16 3 0
4 3 0
5 17 0
3 17 0
17 5 0
3 5 0
17 3 0
5 3 0
6 18 0
3 18 0
18 6 0
3 6 0
18 3 0
6 3 0
5 19 0
4 19 0
19 5 0
4 5 0
19 4 0
5 4 0
6 20 0
4 20 0
20 6 0
4 6 0
20 4 0
6 4 0
6 21 0
5 21 0
21 6 0
5 6 0
21 5 0
6 5 0
8 12 0
7 12 0
12 8 0
7 8 0
12 7 0
8 7 0
9 13 0
7 13 0
13 9 0
7 9 0
13 7 0
9 7 0
10 14 0
7 14 0
14 10 0
7 10 0
14 7 0
10 7 0
11 15 0
7 15 0
15 11 0
7 11 0
15 7 0
11 7 0
9 16 0
8 16 0
16 9 0
8 9 0
16 8 0
9 8 0
10 17 0
8 17 0
17 10 0
8 10 0
17 8 0
10 8 0
11 18 0
8 18 0
18 11 0
8 11 0
18 8 0
11 8 0
10 19 0
9 19 0
19 10 0
9 10 0
19 9 0
10 9 0
11 20 0
9 20 0
20 11 0
9 11 0
20 9 0
11 9 0
11 21 0
10 21 0
21 11 0
10 11 0
21 10 0
11 10 0
13 16 0
12 16 0
16 13 0
12 13 0
16 12 0
13 12 0
14 17 0
12 17 0
17 14 0
12 14 0
17 12 0
14 12 0
15 18 0
12 18 0
18 15 0
12 15 0
18 12 0
15 12 0
14 19 0
13 19 0
19 14 0
13 14 0
19 13 0
14 13 0
15 20 0
13 20 0
20 15 0
13 15 0
20 13 0
15 13 0
15 21 0
14 21 0
21 15 0
14 15 0
21 14 0
15 14 0
17 19 0
16 19 0
19 17 0
16 17 0
19 16 0
17 16 0
18 20 0
16 20 0
20 18 0
16 18 0
20 16 0
18 16 0
18 21 0
17 21 0
21 18 0
17 18 0
21 17 0
18 17 0
20 21 0
19 21 0
21 20 0
19 20 0
21 19 0
20 19 0
-1 -2 -3 -7 -8 -12 0
-3 -2 -1 -12 -8 -7 0
-1 -8 -7 -3 -2 -12 0
-7 -8 -1 -12 -2 -3 0
-7 -2 -12 -1 -8 -3 0
-12 -2 -7 -3 -8 -1 0
-3 -8 -12 -1 -2 -7 0
-12 -8 -3 -7 -2 -1 0
-1 -2 -4 -7 -9 -13 0
-4 -2 -1 -13 -9 -7 0
-1 -9 -7 -4 -2 -13 0
-7 -9 -1 -13 -2 -4 0
-7 -2 -13 -1 -9 -4 0
-13 -2 -7 -4 -9 -1 0
-4 -9 -13 -1 -2 -7 0
-13 -9 -4 -7 -2 -1 0
-1 -2 -5 -7 -10 -14 0
-5 -2 -1 -14 -10 -7 0
-1 -10 -7 -5 -2 -14 0
-7 -10 -1 -14 -2 -5 0
-7 -2 -14 -1 -10 -5 0
-14 -2 -7 -5 -10 -1 0
-5 -10 -14 -1 -2 -7 0
-14 -10 -5 -7 -2 -1 0
-1 -2 -6 -7 -11 -15 0
-6 -2 -1 -15 -11 -7 0
-1 -11 -7 -6 -2 -15 0
-7 -11 -1 -15 -2 -6 0
-7 -2 -15 -1 -11 -6 0
-15 -2 -7 -6 -11 -1 0
-6 -11 -15 -1 -2 -7 0
-15 -11 -6 -7 -2 -1 0
-1 -3 -4 -8 -9 -16 0
-4 -3 -1 -16 -9 -8 0
-1 -9 -8 -4 -3 -16 0
-8 -9 -1 -16 -3 -4 0
-8 -3 -16 -1 -9 -4 0
-16 -3 -8 -4 -9 -1 0
-4 -9 -16 -1 -3 -8 0
-16 -9 -4 -8 -3 -1 0
-1 -3 -5 -8 -10 -17 0
-5 -3 -1 -17 -10 -8 0
-1 -10 -8 -5 -3 -17 0
-8 -10 -1 -17 -3 -5 0
-8 -3 -17 -1 -10 -5 0
-17 -3 -8 -5 -10 -1 0
-5 -10 -17 -1 -3 -8 0
-17 -10 -5 -8 -3 -1 0
-1 -3 -6 -8 -11 -18 0
-6 -3 -1 -18 -11 -8 0
-1 -11 -8 -6 -3 -18 0
-8 -11 -1 -18 -3 -6 0
-8 -3 -18 -1 -11 -6 0
-18 -3 -8 -6 -11 -1 0
-6 -11 -18 -1 -3 -8 0
-18 -11 -6 -8 -3 -1 0
-1 -4 -5 -9 -10 -19 0
-5 -4 -1 -19 -10 -9 0
-1 -10 -9 -5 -4 -19 0
-9 -10 -1 -19 -4 -5 0
-9 -4 -19 -1 -10 -5 0
-19 -4 -9 -5 -10 -1 0
-5 -10 -19 -1 -4 -9 0
-19 -10 -5 -9 -4 -1 0
-1 -4 -6 -9 -11 -20 0
-6 -4 -1 -20 -11 -9 0
-1 -11 -9 -6 -4 -20 0
-9 -11 -1 -20 -4 -6 0
-9 -4 -20 -1 -11 -6 0
-20 -4 -9 -6 -11 -1 0
-6 -11 -20 -1 -4 -9 0
-20 -11 -6 -9 -4 -1 0
-1 -5 -6 -10 -11 -21 0
-6 -5 -1 -21 -11 -10 0
-1 -11 -10 -6 -5 -21 0
-10 -11 -1 -21 -5 -6 0
-10 -5 -21 -1 -11 -6 0
-21 -5 -10 -6 -11 -1 0
-6 -11 -21 -1 -5 -10 0
-21 -11 -6 -10 -5 -1 0
-2 -3 -4 -12 -13 -16 0
-4 -3 -2 -16 -13 -12 0
-2 -13 -12 -4 -3 -16 0
-12 -13 -2 -16 -3 -4 0
-12 -3 -16 -2 -13 -4 0
-16 -3 -12 -4 -13 -2 0
-4 -13 -16 -2 -3 -12 0
-16 -13 -4 -12 -3 -2 0
-2 -3 -5 -12 -14 -17 0
-5 -3 -2 -17 -14 -12 0
-2 -14 -12 -5 -3 -17 0
-12 -14 -2 -17 -3 -5 0
-12 -3 -17 -2 -14 -5 0
-17 -3 -12 -5 -14 -2 0
-5 -14 -17 -2 -3 -12 0
-17 -14 -5 -12 -3 -2 0
-2 -3 -6 -12 -15 -18 0
-6 -3 -2 -18 -15 -12 0
-2 -15 -12 -6 -3 -18 0
-12 -15 -2 -18 -3 -6 0
-12 -3 -18 -2 -15 -6 0
-18 -3 -12 -6 -15 -2 0
-6 -15 -18 -2 -3 -12 0
-18 -15 -6 -12 -3 -2 0
-2 -4 -5 -13 -14 -19 0
-5 -4 -2 -19 -14 -13 0
-2 -14 -13 -5 -4 -19 0
-13 -14 -2 -19 -4 -5 0
-13 -4 -19 -2 -14 -5 0
-19 -4 -13 -5 -14 -2 0
-5 -14 -19 -2 -4 -13 0
-19 -14 -5 -13 -4 -2 0
-2 -4 -6 -13 -15 -20 0
-6 -4 -2 -20 -15 -13 0
-2 -15 -13 -6 -4 -20 0
-13 -15 -2 -20 -4 -6 0
-13 -4 -20 -2 -15 -6 0
-20 -4 -13 -6 -15 -2 0
-6 -15 -20 -2 -4 -13 0
-20 -15 -6 -13 -4 -2 0
-2 -5 -6 -14 -15 -21 0
-6 -5 -2 -21 -15 -14 0
-2 -15 -14 -6 -5 -21 0
-14 -15 -2 -21 -5 -6 0
-14 -5 -21 -2 -15 -6 0
-21 -5 -14 -6 -15 -2 0
-6 -15 -21 -2 -5 -14 0
-21 -15 -6 -14 -5 -2 0
-3 -4 -5 -16 -17 -19 0
-5 -4 -3 -19 -17 -16 0
-3 -17 -16 -5 -4 -19 0
-16 -17 -3 -19 -4 -5 0
-16 -4 -19 -3 -17 -5 0
-19 -4 -16 -5 -17 -3 0
-5 -17 -19 -3 -4 -16 0
-19 -17 -5 -16 -4 -3 0
-3 -4 -6 -16 -18 -20 0
-6 -4 -3 -20 -18 -16 0
-3 -18 -16 -6 -4 -20 0
-16 -18 -3 -20 -4 -6 0
-16 -4 -20 -3 -18 -6 0
-20 -4 -16 -6 -18 -3 0
-6 -18 -20 -3 -4 -16 0
-20 -18 -6 -16 -4 -3 0
-3 -5 -6 -17 -18 -21 0
-6 -5 -3 -21 -18 -17 0
-3 -18 -17 -6 -5 -21 0
-17 -18 -3 -21 -5 -6 0
-17 -5 -21 -3 -18 -6 0
-21 -5 -17 -6 -18 -3 0
-6 -18 -21 -3 -5 -17 0
-21 -18 -6 -17 -5 -3 0
-4 -5 -6 -19 -20 -21 0
-6 -5 -4 -21 -20 -19 0
-4 -20 -19 -6 -5 -21 0
-19 -20 -4 -21 -5 -6 0
-19 -5 -21 -4 -20 -6 0
-21 -5 -19 -6 -20 -4 0
-6 -20 -21 -4 -5 -19 0
-21 -20 -6 -19 -5 -4 0
-7 -8 -9 -12 -13 -16 0
-9 -8 -7 -16 -13 -12 0
-7 -13 -12 -9 -8 -16 0
-12 -13 -7 -16 -8 -9 0
-12 -8 -16 -7 -13 -9 0
-16 -8 -12 -9 -13 -7 0
-9 -13 -16 -7 -8 -12 0
-16 -13 -9 -12 -8 -7 0
-7 -8 -10 -12 -14 -17 0
-10 -8 -7 -17 -14 -12 0
-7 -14 -12 -10 -8 -17 0
-12 -14 -7 -17 -8 -10 0
-12 -8 -17 -7 -14 -10 0
-17 -8 -12 -10 -14 -7 0
-10 -14 -17 -7 -8 -12 0
-17 -14 -10 -12 -8 -7 0
-7 -8 -11 -12 -15 -18 0
-11 -8 -7 -18 -15 -12 0
-7 -15 -12 -11 -8 -18 0
-12 -15 -7 -18 -8 -11 0
-12 -8 -18 -7 -15 -11 0
-18 -8 -12 -11 -15 -7 0
-11 -15 -18 -7 -8 -12 0
-18 -15 -11 -12 -8 -7 0
-7 -9 -10 -13 -14 -19 0
-10 -9 -7 -19 -14 -13 0
-7 -14 -13 -10 -9 -19 0
-13 -14 -7 -19 -9 -10 0
-13 -9 -19 -7 -14 -10 0
-19 -9 -13 -10 -14 -7 0
-10 -14 -19 -7 -9 -13 0
-19 -14 -10 -13 -9 -7 0
-7 -9 -11 -13 -15 -20 0
-11 -9 -7 -20 -15 -13 0
-7 -15 -13 -11 -9 -20 0
-13 -15 -7 -20 -9 -11 0
-13 -9 -20 -7 -15 -11 0
-20 -9 -13 -11 -15 -7 0
-11 -15 -20 -7 -9 -13 0
-20 -15 -11 -13 -9 -7 0
-7 -10 -11 -14 -15 -21 0
-11 -10 -7 -21 -15 -14 0
-7 -15 -14 -11 -10 -21 0
-14 -15 -7 -21 -10 -11 0
-14 -10 -21 -7 -15 -11 0
-21 -10 -14 -11 -15 -7 0
-11 -15 -21 -7 -10 -14 0
-21 -15 -11 -14 -10 -7 0
-8 -9 -10 -16 -17 -19 0
-10 -9 -8 -19 -17 -16 0
-8 -17 -16 -10 -9 -19 0
-16 -17 -8 -19 -9 -10 0
-16 -9 -19 -8 -17 -10 0
-19 -9 -16 -10 -17 -8 0
-10 -17 -19 -8 -9 -16 0
-19 -17 -10 -16 -9 -8 0
-8 -9 -11 -16 -18 -20 0
-11 -9 -8 -20 -18 -16 0
-8 -18 -16 -11 -9 -20 0
-16 -18 -8 -20 -9 -11 0
-16 -9 -20 -8 -18 -11 0
-20 -9 -16 -11 -18 -8 0
-11 -18 -20 -8 -9 -16 0
-20 -18 -11 -16 -9 -8 0
-8 -10 -11 -17 -18 -21 0
-11 -10 -8 -21 -18 -17 0
-8 -18 -17 -11 -10 -21 0
-17 -18 -8 -21 -10 -11 0
-17 -10 -21 -8 -18 -11 0
-21 -10 -17 -11 -18 -8 0
-11 -18 -21 -8 -10 -17 0
-21 -18 -11 -17 -10 -8 0
-9 -10 -11 -19 -20 -21 0
-11 -10 -9 -21 -20 -19 0
-9 -20 -19 -11 -10 -21 0
-19 -20 -9 -21 -10 -11 0
-19 -10 -21 -9 -20 -11 0
-21 -10 -19 -11 -20 -9 0
-11 -20 -21 -9 -10 -19 0
-21 -20 -11 -19 -10 -9 0
-12 -13 -14 -16 -17 -19 0
-14 -13 -12 -19 -17 -16 0
-12 -17 -16 -14 -13 -19 0
-16 -17 -12 -19 -13 -14 0
-16 -13 -19 -12 -17 -14 0
-19 -13 -16 -14 -17 -12 0
-14 -17 -19 -12 -13 -16 0
-19 -17 -14 -16 -13 -12 0
-12 -13 -15 -16 -18 -20 0
-15 -13 -12 -20 -18 -16 0
-12 -18 -16 -15 -13 -20 0
-16 -18 -12 -20 -13 -15 0
-16 -13 -20 -12 -18 -15 0
-20 -13 -16 -15 -18 -12 0
-15 -18 -20 -12 -13 -16 0
-20 -18 -15 -16 -13 -12 0
-12 -14 -15 -17 -18 -21 0
-15 -14 -12 -21 -18 -17 0
-12 -18 -17 -15 -14 -21 0
-17 -18 -12 -21 -14 -15 0
-17 -14 -21 -12 -18 -15 0
-21 -14 -17 -15 -18 -12 0
-15 -18 -21 -12 -14 -17 0
-21 -18 -15 -17 -14 -12 0
-13 -14 -15 -19 -20 -21 0
-15 -14 -13 -21 -20 -19 0
-13 -20 -19 -15 -14 -21 0
-19 -20 -13 -21 -14 -15 0
-19 -14 -21 -13 -20 -15 0
-21 -14 -19 -15 -20 -13 0
-15 -20 -21 -13 -14 -19 0
-21 -20 -15 -19 -14 -13 0
-16 -17 -18 -19 -20 -21 0
-18 -17 -16 -21 -20 -19 0
-16 -20 -19 -18 -17 -21 0
-19 -20 -16 -21 -17 -18 0
-19 -17 -21 -16 -20 -18 0
-21 -17 -19 -18 -20 -16 0
-18 -20 -21 -16 -17 -19 0
-21 -20 -18 -19 -17 -16 0
