c Theorem B raw encoding: (P3alt,Dih(3)) vs (K_5,Dih(5)), n=8; SAT expected (witness leg); regenerated 2026-08-13
p cnf 28 896
2 8 0
1 8 0
8 2 0
1 2 0
8 1 0
2 1 0
3 9 0
1 9 0
9 3 0
1 3 0
9 1 0
3 1 0
4 10 0
1 10 0
10 4 0
1 4 0
10 1 0
4 1 0
5 11 0
1 11 0
11 5 0
1 5 0
11 1 0
5 1 0
6 12 0
1 12 0
12 6 0
1 6 0
12 1 0
6 1 0
7 13 0
1 13 0
13 7 0
1 7 0
13 1 0
7 1 0
3 14 0
2 14 0
14 3 0
2 3 0
14 2 0
3 2 0
4 15 0
2 15 0
15 4 0
2 4 0
15 2 0
4 2 0
5 16 0
2 16 0
16 5 0
2 5 0
16 2 0
5 2 0
6 17 0
2 17 0
17 6 0
2 6 0
17 2 0
6 2 0
7 18 0
2 18 0
18 7 0
2 7 0
18 2 0
7 2 0
4 19 0
3 19 0
19 4 0
3 4 0
19 3 0
4 3 0
5 20 0
3 20 0
20 5 0
3 5 0
20 3 0
5 3 0
6 21 0
3 21 0
21 6 0
3 6 0
21 3 0
6 3 0
7 22 0
3 22 0
22 7 0
3 7 0
22 3 0
7 3 0
5 23 0
4 23 0
23 5 0
4 5 0
23 4 0
5 4 0
6 24 0
4 24 0
24 6 0
4 6 0
24 4 0
6 4 0
7 25 0
4 25 0
25 7 0
4 7 0
25 4 0
7 4 0
6 26 0
5 26 0
26 6 0
5 6 0
26 5 0
6 5 0
7 27 0
5 27 0
27 7 0
5 7 0
27 5 0
7 5 0
7 28 0
6 28 0
28 7 0
6 7 0
28 6 0
7 6 0
9 14 0
8 14 0
14 9 0
8 9 0
14 8 0
9 8 0
10 15 0
8 15 0
15 10 0
8 10 0
15 8 0
10 8 0
11 16 0
8 16 0
16 11 0
8 11 0
16 8 0
11 8 0
12 17 0
8 17 0
17 12 0
8 12 0
17 8 0
12 8 0
13 18 0
8 18 0
18 13 0
8 13 0
18 8 0
13 8 0
10 19 0
9 19 0
19 10 0
9 10 0
19 9 0
10 9 0
11 20 0
9 20 0
20 11 0
9 11 0
20 9 0
11 9 0
12 21 0
9 21 0
21 12 0
9 12 0
21 9 0
12 9 0
13 22 0
9 22 0
22 13 0
9 13 0
22 9 0
13 9 0
11 23 0
10 23 0
23 11 0
10 11 0
23 10 0
11 10 0
12 24 0
10 24 0
24 12 0
10 12 0
24 10 0
12 10 0
13 25 0
10 25 0
25 13 0
10 13 0
25 10 0
13 10 0
12 26 0
11 26 0
26 12 0
11 12 0
26 11 0
12 11 0
13 27 0
11 27 0
27 13 0
11 13 0
27 11 0
13 11 0
13 28 0
12 28 0
28 13 0
12 13 0
28 12 0
13 12 0
15 19 0
14 19 0
19 15 0
14 15 0
19 14 0
15 14 0
16 20 0
14 20 0
20 16 0
14 16 0
20 14 0
16 14 0
17 21 0
14 21 0
21 17 0
14 17 0
21 14 0
17 14 0
18 22 0
14 22 0
22 18 0
14 18 0
22 14 0
18 14 0
16 23 0
15 23 0
23 16 0
15 16 0
23 15 0
16 15 0
17 24 0
15 24 0
24 17 0
15 17 0
24 15 0
17 15 0
18 25 0
15 25 0
25 18 0
15 18 0
25 15 0
18 15 0
17 26 0
16 26 0
26 17 0
16 17 0
26 16 0
17 16 0
18 27 0
16 27 0
27 18 0
16 18 0
27 16 0
18 16 0
18 28 0
17 28 0
28 18 0
17 18 0
28 17 0
18 17 0
20 23 0
19 23 0
23 20 0
19 20 0
23 19 0
20 19 0
21 24 0
19 24 0
24 21 0
19 21 0
24 19 0
21 19 0
22 25 0
19 25 0
25 22 0
19 22 0
25 19 0
22 19 0
21 26 0
20 26 0
26 21 0
20 21 0
26 20 0
21 20 0
22 27 0
20 27 0
27 22 0
20 22 0
27 20 0
22 20 0
22 28 0
21 28 0
28 22 0
21 22 0
28 21 0
22 21 0
24 26 0
23 26 0
26 24 0
23 24 0
26 23 0
24 23 0
25 27 0
23 27 0
27 25 0
23 25 0
27 23 0
25 23 0
25 28 0
24 28 0
28 25 0
24 25 0
28 24 0
25 24 0
27 28 0
26 28 0
28 27 0
26 27 0
28 26 0
27 26 0
-1 -2 -3 -4 -8 -9 -10 -14 -15 -19 0
-4 -3 -2 -1 -19 -15 -10 -14 -9 -8 0
-1 -10 -9 -8 -4 -3 -2 -19 -15 -14 0
-8 -9 -10 -1 -14 -15 -2 -19 -3 -4 0
-8 -2 -15 -14 -1 -10 -9 -4 -3 -19 0
-14 -15 -2 -8 -19 -3 -9 -4 -10 -1 0
-14 -9 -3 -19 -8 -2 -15 -1 -10 -4 0
-19 -3 -9 -14 -4 -10 -15 -1 -2 -8 0
-4 -10 -15 -19 -1 -2 -3 -8 -9 -14 0
-19 -15 -10 -4 -14 -9 -3 -8 -2 -1 0
-1 -2 -3 -5 -8 -9 -11 -14 -16 -20 0
-5 -3 -2 -1 -20 -16 -11 -14 -9 -8 0
-1 -11 -9 -8 -5 -3 -2 -20 -16 -14 0
-8 -9 -11 -1 -14 -16 -2 -20 -3 -5 0
-8 -2 -16 -14 -1 -11 -9 -5 -3 -20 0
-14 -16 -2 -8 -20 -3 -9 -5 -11 -1 0
-14 -9 -3 -20 -8 -2 -16 -1 -11 -5 0
-20 -3 -9 -14 -5 -11 -16 -1 -2 -8 0
-5 -11 -16 -20 -1 -2 -3 -8 -9 -14 0
-20 -16 -11 -5 -14 -9 -3 -8 -2 -1 0
-1 -2 -3 -6 -8 -9 -12 -14 -17 -21 0
-6 -3 -2 -1 -21 -17 -12 -14 -9 -8 0
-1 -12 -9 -8 -6 -3 -2 -21 -17 -14 0
-8 -9 -12 -1 -14 -17 -2 -21 -3 -6 0
-8 -2 -17 -14 -1 -12 -9 -6 -3 -21 0
-14 -17 -2 -8 -21 -3 -9 -6 -12 -1 0
-14 -9 -3 -21 -8 -2 -17 -1 -12 -6 0
-21 -3 -9 -14 -6 -12 -17 -1 -2 -8 0
-6 -12 -17 -21 -1 -2 -3 -8 -9 -14 0
-21 -17 -12 -6 -14 -9 -3 -8 -2 -1 0
-1 -2 -3 -7 -8 -9 -13 -14 -18 -22 0
-7 -3 -2 -1 -22 -18 -13 -14 -9 -8 0
-1 -13 -9 -8 -7 -3 -2 -22 -18 -14 0
-8 -9 -13 -1 -14 -18 -2 -22 -3 -7 0
-8 -2 -18 -14 -1 -13 -9 -7 -3 -22 0
-14 -18 -2 -8 -22 -3 -9 -7 -13 -1 0
-14 -9 -3 -22 -8 -2 -18 -1 -13 -7 0
-22 -3 -9 -14 -7 -13 -18 -1 -2 -8 0
-7 -13 -18 -22 -1 -2 -3 -8 -9 -14 0
-22 -18 -13 -7 -14 -9 -3 -8 -2 -1 0
-1 -2 -4 -5 -8 -10 -11 -15 -16 -23 0
-5 -4 -2 -1 -23 -16 -11 -15 -10 -8 0
-1 -11 -10 -8 -5 -4 -2 -23 -16 -15 0
-8 -10 -11 -1 -15 -16 -2 -23 -4 -5 0
-8 -2 -16 -15 -1 -11 -10 -5 -4 -23 0
-15 -16 -2 -8 -23 -4 -10 -5 -11 -1 0
-15 -10 -4 -23 -8 -2 -16 -1 -11 -5 0
-23 -4 -10 -15 -5 -11 -16 -1 -2 -8 0
-5 -11 -16 -23 -1 -2 -4 -8 -10 -15 0
-23 -16 -11 -5 -15 -10 -4 -8 -2 -1 0
-1 -2 -4 -6 -8 -10 -12 -15 -17 -24 0
-6 -4 -2 -1 -24 -17 -12 -15 -10 -8 0
-1 -12 -10 -8 -6 -4 -2 -24 -17 -15 0
-8 -10 -12 -1 -15 -17 -2 -24 -4 -6 0
-8 -2 -17 -15 -1 -12 -10 -6 -4 -24 0
-15 -17 -2 -8 -24 -4 -10 -6 -12 -1 0
-15 -10 -4 -24 -8 -2 -17 -1 -12 -6 0
-24 -4 -10 -15 -6 -12 -17 -1 -2 -8 0
-6 -12 -17 -24 -1 -2 -4 -8 -10 -15 0
-24 -17 -12 -6 -15 -10 -4 -8 -2 -1 0
-1 -2 -4 -7 -8 -10 -13 -15 -18 -25 0
-7 -4 -2 -1 -25 -18 -13 -15 -10 -8 0
-1 -13 -10 -8 -7 -4 -2 -25 -18 -15 0
-8 -10 -13 -1 -15 -18 -2 -25 -4 -7 0
-8 -2 -18 -15 -1 -13 -10 -7 -4 -25 0
-15 -18 -2 -8 -25 -4 -10 -7 -13 -1 0
-15 -10 -4 -25 -8 -2 -18 -1 -13 -7 0
-25 -4 -10 -15 -7 -13 -18 -1 -2 -8 0
-7 -13 -18 -25 -1 -2 -4 -8 -10 -15 0
-25 -18 -13 -7 -15 -10 -4 -8 -2 -1 0
-1 -2 -5 -6 -8 -11 -12 -16 -17 -26 0
-6 -5 -2 -1 -26 -17 -12 -16 -11 -8 0
-1 -12 -11 -8 -6 -5 -2 -26 -17 -16 0
-8 -11 -12 -1 -16 -17 -2 -26 -5 -6 0
-8 -2 -17 -16 -1 -12 -11 -6 -5 -26 0
-16 -17 -2 -8 -26 -5 -11 -6 -12 -1 0
-16 -11 -5 -26 -8 -2 -17 -1 -12 -6 0
-26 -5 -11 -16 -6 -12 -17 -1 -2 -8 0
-6 -12 -17 -26 -1 -2 -5 -8 -11 -16 0
-26 -17 -12 -6 -16 -11 -5 -8 -2 -1 0
-1 -2 -5 -7 -8 -11 -13 -16 -18 -27 0
-7 -5 -2 -1 -27 -18 -13 -16 -11 -8 0
-1 -13 -11 -8 -7 -5 -2 -27 -18 -16 0
-8 -11 -13 -1 -16 -18 -2 -27 -5 -7 0
-8 -2 -18 -16 -1 -13 -11 -7 -5 -27 0
-16 -18 -2 -8 -27 -5 -11 -7 -13 -1 0
-16 -11 -5 -27 -8 -2 -18 -1 -13 -7 0
-27 -5 -11 -16 -7 -13 -18 -1 -2 -8 0
-7 -13 -18 -27 -1 -2 -5 -8 -11 -16 0
-27 -18 -13 -7 -16 -11 -5 -8 -2 -1 0
-1 -2 -6 -7 -8 -12 -13 -17 -18 -28 0
-7 -6 -2 -1 -28 -18 -13 -17 -12 -8 0
-1 -13 -12 -8 -7 -6 -2 -28 -18 -17 0
-8 -12 -13 -1 -17 -18 -2 -28 -6 -7 0
-8 -2 -18 -17 -1 -13 -12 -7 -6 -28 0
-17 -18 -2 -8 -28 -6 -12 -7 -13 -1 0
-17 -12 -6 -28 -8 -2 -18 -1 -13 -7 0
-28 -6 -12 -17 -7 -13 -18 -1 -2 -8 0
-7 -13 -18 -28 -1 -2 -6 -8 -12 -17 0
-28 -18 -13 -7 -17 -12 -6 -8 -2 -1 0
-1 -3 -4 -5 -9 -10 -11 -19 -20 -23 0
-5 -4 -3 -1 -23 -20 -11 -19 -10 -9 0
-1 -11 -10 -9 -5 -4 -3 -23 -20 -19 0
-9 -10 -11 -1 -19 -20 -3 -23 -4 -5 0
-9 -3 -20 -19 -1 -11 -10 -5 -4 -23 0
-19 -20 -3 -9 -23 -4 -10 -5 -11 -1 0
-19 -10 -4 -23 -9 -3 -20 -1 -11 -5 0
-23 -4 -10 -19 -5 -11 -20 -1 -3 -9 0
-5 -11 -20 -23 -1 -3 -4 -9 -10 -19 0
-23 -20 -11 -5 -19 -10 -4 -9 -3 -1 0
-1 -3 -4 -6 -9 -10 -12 -19 -21 -24 0
-6 -4 -3 -1 -24 -21 -12 -19 -10 -9 0
-1 -12 -10 -9 -6 -4 -3 -24 -21 -19 0
-9 -10 -12 -1 -19 -21 -3 -24 -4 -6 0
-9 -3 -21 -19 -1 -12 -10 -6 -4 -24 0
-19 -21 -3 -9 -24 -4 -10 -6 -12 -1 0
-19 -10 -4 -24 -9 -3 -21 -1 -12 -6 0
-24 -4 -10 -19 -6 -12 -21 -1 -3 -9 0
-6 -12 -21 -24 -1 -3 -4 -9 -10 -19 0
-24 -21 -12 -6 -19 -10 -4 -9 -3 -1 0
-1 -3 -4 -7 -9 -10 -13 -19 -22 -25 0
-7 -4 -3 -1 -25 -22 -13 -19 -10 -9 0
-1 -13 -10 -9 -7 -4 -3 -25 -22 -19 0
-9 -10 -13 -1 -19 -22 -3 -25 -4 -7 0
-9 -3 -22 -19 -1 -13 -10 -7 -4 -25 0
-19 -22 -3 -9 -25 -4 -10 -7 -13 -1 0
-19 -10 -4 -25 -9 -3 -22 -1 -13 -7 0
-25 -4 -10 -19 -7 -13 -22 -1 -3 -9 0
-7 -13 -22 -25 -1 -3 -4 -9 -10 -19 0
-25 -22 -13 -7 -19 -10 -4 -9 -3 -1 0
-1 -3 -5 -6 -9 -11 -12 -20 -21 -26 0
-6 -5 -3 -1 -26 -21 -12 -20 -11 -9 0
-1 -12 -11 -9 -6 -5 -3 -26 -21 -20 0
-9 -11 -12 -1 -20 -21 -3 -26 -5 -6 0
-9 -3 -21 -20 -1 -12 -11 -6 -5 -26 0
-20 -21 -3 -9 -26 -5 -11 -6 -12 -1 0
-20 -11 -5 -26 -9 -3 -21 -1 -12 -6 0
-26 -5 -11 -20 -6 -12 -21 -1 -3 -9 0
-6 -12 -21 -26 -1 -3 -5 -9 -11 -20 0
-26 -21 -12 -6 -20 -11 -5 -9 -3 -1 0
-1 -3 -5 -7 -9 -11 -13 -20 -22 -27 0
-7 -5 -3 -1 -27 -22 -13 -20 -11 -9 0
-1 -13 -11 -9 -7 -5 -3 -27 -22 -20 0
-9 -11 -13 -1 -20 -22 -3 -27 -5 -7 0
-9 -3 -22 -20 -1 -13 -11 -7 -5 -27 0
-20 -22 -3 -9 -27 -5 -11 -7 -13 -1 0
-20 -11 -5 -27 -9 -3 -22 -1 -13 -7 0
-27 -5 -11 -20 -7 -13 -22 -1 -3 -9 0
-7 -13 -22 -27 -1 -3 -5 -9 -11 -20 0
-27 -22 -13 -7 -20 -11 -5 -9 -3 -1 0
-1 -3 -6 -7 -9 -12 -13 -21 -22 -28 0
-7 -6 -3 -1 -28 -22 -13 -21 -12 -9 0
-1 -13 -12 -9 -7 -6 -3 -28 -22 -21 0
-9 -12 -13 -1 -21 -22 -3 -28 -6 -7 0
-9 -3 -22 -21 -1 -13 -12 -7 -6 -28 0
-21 -22 -3 -9 -28 -6 -12 -7 -13 -1 0
-21 -12 -6 -28 -9 -3 -22 -1 -13 -7 0
-28 -6 -12 -21 -7 -13 -22 -1 -3 -9 0
-7 -13 -22 -28 -1 -3 -6 -9 -12 -21 0
-28 -22 -13 -7 -21 -12 -6 -9 -3 -1 0
-1 -4 -5 -6 -10 -11 -12 -23 -24 -26 0
-6 -5 -4 -1 -26 -24 -12 -23 -11 -10 0
-1 -12 -11 -10 -6 -5 -4 -26 -24 -23 0
-10 -11 -12 -1 -23 -24 -4 -26 -5 -6 0
-10 -4 -24 -23 -1 -12 -11 -6 -5 -26 0
-23 -24 -4 -10 -26 -5 -11 -6 -12 -1 0
-23 -11 -5 -26 -10 -4 -24 -1 -12 -6 0
-26 -5 -11 -23 -6 -12 -24 -1 -4 -10 0
-6 -12 -24 -26 -1 -4 -5 -10 -11 -23 0
-26 -24 -12 -6 -23 -11 -5 -10 -4 -1 0
-1 -4 -5 -7 -10 -11 -13 -23 -25 -27 0
-7 -5 -4 -1 -27 -25 -13 -23 -11 -10 0
-1 -13 -11 -10 -7 -5 -4 -27 -25 -23 0
-10 -11 -13 -1 -23 -25 -4 -27 -5 -7 0
-10 -4 -25 -23 -1 -13 -11 -7 -5 -27 0
-23 -25 -4 -10 -27 -5 -11 -7 -13 -1 0
-23 -11 -5 -27 -10 -4 -25 -1 -13 -7 0
-27 -5 -11 -23 -7 -13 -25 -1 -4 -10 0
-7 -13 -25 -27 -1 -4 -5 -10 -11 -23 0
-27 -25 -13 -7 -23 -11 -5 -10 -4 -1 0
-1 -4 -6 -7 -10 -12 -13 -24 -25 -28 0
-7 -6 -4 -1 -28 -25 -13 -24 -12 -10 0
-1 -13 -12 -10 -7 -6 -4 -28 -25 -24 0
-10 -12 -13 -1 -24 -25 -4 -28 -6 -7 0
-10 -4 -25 -24 -1 -13 -12 -7 -6 -28 0
-24 -25 -4 -10 -28 -6 -12 -7 -13 -1 0
-24 -12 -6 -28 -10 -4 -25 -1 -13 -7 0
-28 -6 -12 -24 -7 -13 -25 -1 -4 -10 0
-7 -13 -25 -28 -1 -4 -6 -10 -12 -24 0
-28 -25 -13 -7 -24 -12 -6 -10 -4 -1 0
-1 -5 -6 -7 -11 -12 -13 -26 -27 -28 0
-7 -6 -5 -1 -28 -27 -13 -26 -12 -11 0
-1 -13 -12 -11 -7 -6 -5 -28 -27 -26 0
-11 -12 -13 -1 -26 -27 -5 -28 -6 -7 0
-11 -5 -27 -26 -1 -13 -12 -7 -6 -28 0
-26 -27 -5 -11 -28 -6 -12 -7 -13 -1 0
-26 -12 -6 -28 -11 -5 -27 -1 -13 -7 0
-28 -6 -12 -26 -7 -13 -27 -1 -5 -11 0
-7 -13 -27 -28 -1 -5 -6 -11 -12 -26 0
-28 -27 -13 -7 -26 -12 -6 -11 -5 -1 0
-2 -3 -4 -5 -14 -15 -16 -19 -20 -23 0
-5 -4 -3 -2 -23 -20 -16 -19 -15 -14 0
-2 -16 -15 -14 -5 -4 -3 -23 -20 -19 0
-14 -15 -16 -2 -19 -20 -3 -23 -4 -5 0
-14 -3 -20 -19 -2 -16 -15 -5 -4 -23 0
-19 -20 -3 -14 -23 -4 -15 -5 -16 -2 0
-19 -15 -4 -23 -14 -3 -20 -2 -16 -5 0
-23 -4 -15 -19 -5 -16 -20 -2 -3 -14 0
-5 -16 -20 -23 -2 -3 -4 -14 -15 -19 0
-23 -20 -16 -5 -19 -15 -4 -14 -3 -2 0
-2 -3 -4 -6 -14 -15 -17 -19 -21 -24 0
-6 -4 -3 -2 -24 -21 -17 -19 -15 -14 0
-2 -17 -15 -14 -6 -4 -3 -24 -21 -19 0
-14 -15 -17 -2 -19 -21 -3 -24 -4 -6 0
-14 -3 -21 -19 -2 -17 -15 -6 -4 -24 0
-19 -21 -3 -14 -24 -4 -15 -6 -17 -2 0
-19 -15 -4 -24 -14 -3 -21 -2 -17 -6 0
-24 -4 -15 -19 -6 -17 -21 -2 -3 -14 0
-6 -17 -21 -24 -2 -3 -4 -14 -15 -19 0
-24 -21 -17 -6 -19 -15 -4 -14 -3 -2 0
-2 -3 -4 -7 -14 -15 -18 -19 -22 -25 0
-7 -4 -3 -2 -25 -22 -18 -19 -15 -14 0
-2 -18 -15 -14 -7 -4 -3 -25 -22 -19 0
-14 -15 -18 -2 -19 -22 -3 -25 -4 -7 0
-14 -3 -22 -19 -2 -18 -15 -7 -4 -25 0
-19 -22 -3 -14 -25 -4 -15 -7 -18 -2 0
-19 -15 -4 -25 -14 -3 -22 -2 -18 -7 0
-25 -4 -15 -19 -7 -18 -22 -2 -3 -14 0
-7 -18 -22 -25 -2 -3 -4 -14 -15 -19 0
-25 -22 -18 -7 -19 -15 -4 -14 -3 -2 0
-2 -3 -5 -6 -14 -16 -17 -20 -21 -26 0
-6 -5 -3 -2 -26 -21 -17 -20 -16 -14 0
-2 -17 -16 -14 -6 -5 -3 -26 -21 -20 0
-14 -16 -17 -2 -20 -21 -3 -26 -5 -6 0
-14 -3 -21 -20 -2 -17 -16 -6 -5 -26 0
-20 -21 -3 -14 -26 -5 -16 -6 -17 -2 0
-20 -16 -5 -26 -14 -3 -21 -2 -17 -6 0
-26 -5 -16 -20 -6 -17 -21 -2 -3 -14 0
-6 -17 -21 -26 -2 -3 -5 -14 -16 -20 0
-26 -21 -17 -6 -20 -16 -5 -14 -3 -2 0
-2 -3 -5 -7 -14 -16 -18 -20 -22 -27 0
-7 -5 -3 -2 -27 -22 -18 -20 -16 -14 0
-2 -18 -16 -14 -7 -5 -3 -27 -22 -20 0
-14 -16 -18 -2 -20 -22 -3 -27 -5 -7 0
-14 -3 -22 -20 -2 -18 -16 -7 -5 -27 0
-20 -22 -3 -14 -27 -5 -16 -7 -18 -2 0
-20 -16 -5 -27 -14 -3 -22 -2 -18 -7 0
-27 -5 -16 -20 -7 -18 -22 -2 -3 -14 0
-7 -18 -22 -27 -2 -3 -5 -14 -16 -20 0
-27 -22 -18 -7 -20 -16 -5 -14 -3 -2 0
-2 -3 -6 -7 -14 -17 -18 -21 -22 -28 0
-7 -6 -3 -2 -28 -22 -18 -21 -17 -14 0
-2 -18 -17 -14 -7 -6 -3 -28 -22 -21 0
-14 -17 -18 -2 -21 -22 -3 -28 -6 -7 0
-14 -3 -22 -21 -2 -18 -17 -7 -6 -28 0
-21 -22 -3 -14 -28 -6 -17 -7 -18 -2 0
-21 -17 -6 -28 -14 -3 -22 -2 -18 -7 0
-28 -6 -17 -21 -7 -18 -22 -2 -3 -14 0
-7 -18 -22 -28 -2 -3 -6 -14 -17 -21 0
-28 -22 -18 -7 -21 -17 -6 -14 -3 -2 0
-2 -4 -5 -6 -15 -16 -17 -23 -24 -26 0
-6 -5 -4 -2 -26 -24 -17 -23 -16 -15 0
-2 -17 -16 -15 -6 -5 -4 -26 -24 -23 0
-15 -16 -17 -2 -23 -24 -4 -26 -5 -6 0
-15 -4 -24 -23 -2 -17 -16 -6 -5 -26 0
-23 -24 -4 -15 -26 -5 -16 -6 -17 -2 0
-23 -16 -5 -26 -15 -4 -24 -2 -17 -6 0
-26 -5 -16 -23 -6 -17 -24 -2 -4 -15 0
-6 -17 -24 -26 -2 -4 -5 -15 -16 -23 0
-26 -24 -17 -6 -23 -16 -5 -15 -4 -2 0
-2 -4 -5 -7 -15 -16 -18 -23 -25 -27 0
-7 -5 -4 -2 -27 -25 -18 -23 -16 -15 0
-2 -18 -16 -15 -7 -5 -4 -27 -25 -23 0
-15 -16 -18 -2 -23 -25 -4 -27 -5 -7 0
-15 -4 -25 -23 -2 -18 -16 -7 -5 -27 0
-23 -25 -4 -15 -27 -5 -16 -7 -18 -2 0
-23 -16 -5 -27 -15 -4 -25 -2 -18 -7 0
-27 -5 -16 -23 -7 -18 -25 -2 -4 -15 0
-7 -18 -25 -27 -2 -4 -5 -15 -16 -23 0
-27 -25 -18 -7 -23 -16 -5 -15 -4 -2 0
-2 -4 -6 -7 -15 -17 -18 -24 -25 -28 0
-7 -6 -4 -2 -28 -25 -18 -24 -17 -15 0
-2 -18 -17 -15 -7 -6 -4 -28 -25 -24 0
-15 -17 -18 -2 -24 -25 -4 -28 -6 -7 0
-15 -4 -25 -24 -2 -18 -17 -7 -6 -28 0
-24 -25 -4 -15 -28 -6 -17 -7 -18 -2 0
-24 -17 -6 -28 -15 -4 -25 -2 -18 -7 0
-28 -6 -17 -24 -7 -18 -25 -2 -4 -15 0
-7 -18 -25 -28 -2 -4 -6 -15 -17 -24 0
-28 -25 -18 -7 -24 -17 -6 -15 -4 -2 0
-2 -5 -6 -7 -16 -17 -18 -26 -27 -28 0
-7 -6 -5 -2 -28 -27 -18 -26 -17 -16 0
-2 -18 -17 -16 -7 -6 -5 -28 -27 -26 0
-16 -17 -18 -2 -26 -27 -5 -28 -6 -7 0
-16 -5 -27 -26 -2 -18 -17 -7 -6 -28 0
-26 -27 -5 -16 -28 -6 -17 -7 -18 -2 0
-26 -17 -6 -28 -16 -5 -27 -2 -18 -7 0
-28 -6 -17 -26 -7 -18 -27 -2 -5 -16 0
-7 -18 -27 -28 -2 -5 -6 -16 -17 -26 0
-28 -27 -18 -7 -26 -17 -6 -16 -5 -2 0
-3 -4 -5 -6 -19 -20 -21 -23 -24 -26 0
-6 -5 -4 -3 -26 -24 -21 -23 -20 -19 0
-3 -21 -20 -19 -6 -5 -4 -26 -24 -23 0
-19 -20 -21 -3 -23 -24 -4 -26 -5 -6 0
-19 -4 -24 -23 -3 -21 -20 -6 -5 -26 0
-23 -24 -4 -19 -26 -5 -20 -6 -21 -3 0
-23 -20 -5 -26 -19 -4 -24 -3 -21 -6 0
-26 -5 -20 -23 -6 -21 -24 -3 -4 -19 0
-6 -21 -24 -26 -3 -4 -5 -19 -20 -23 0
-26 -24 -21 -6 -23 -20 -5 -19 -4 -3 0
-3 -4 -5 -7 -19 -20 -22 -23 -25 -27 0
-7 -5 -4 -3 -27 -25 -22 -23 -20 -19 0
-3 -22 -20 -19 -7 -5 -4 -27 -25 -23 0
-19 -20 -22 -3 -23 -25 -4 -27 -5 -7 0
-19 -4 -25 -23 -3 -22 -20 -7 -5 -27 0
-23 -25 -4 -19 -27 -5 -20 -7 -22 -3 0
-23 -20 -5 -27 -19 -4 -25 -3 -22 -7 0
-27 -5 -20 -23 -7 -22 -25 -3 -4 -19 0
-7 -22 -25 -27 -3 -4 -5 -19 -20 -23 0
-27 -25 -22 -7 -23 -20 -5 -19 -4 -3 0
-3 -4 -6 -7 -19 -21 -22 -24 -25 -28 0
-7 -6 -4 -3 -28 -25 -22 -24 -21 -19 0
-3 -22 -21 -19 -7 -6 -4 -28 -25 -24 0
-19 -21 -22 -3 -24 -25 -4 -28 -6 -7 0
-19 -4 -25 -24 -3 -22 -21 -7 -6 -28 0
-24 -25 -4 -19 -28 -6 -21 -7 -22 -3 0
-24 -21 -6 -28 -19 -4 -25 -3 -22 -7 0
-28 -6 -21 -24 -7 -22 -25 -3 -4 -19 0
-7 -22 -25 -28 -3 -4 -6 -19 -21 -24 0
-28 -25 -22 -7 -24 -21 -6 -19 -4 -3 0
-3 -5 -6 -7 -20 -21 -22 -26 -27 -28 0
-7 -6 -5 -3 -28 -27 -22 -26 -21 -20 0
-3 -22 -21 -20 -7 -6 -5 -28 -27 -26 0
-20 -21 -22 -3 -26 -27 -5 -28 -6 -7 0
-20 -5 -27 -26 -3 -22 -21 -7 -6 -28 0
-26 -27 -5 -20 -28 -6 -21 -7 -22 -3 0
-26 -21 -6 -28 -20 -5 -27 -3 -22 -7 0
-28 -6 -21 -26 -7 -22 -27 -3 -5 -20 0
-7 -22 -27 -28 -3 -5 -6 -20 -21 -26 0
-28 -27 -22 -7 -26 -21 -6 -20 -5 -3 0
-4 -5 -6 -7 -23 -24 -25 -26 -27 -28 0
-7 -6 -5 -4 -28 -27 -25 -26 -24 -23 0
-4 -25 -24 -23 -7 -6 -5 -28 -27 -26 0
-23 -24 -25 -4 -26 -27 -5 -28 -6 -7 0
-23 -5 -27 -26 -4 -25 -24 -7 -6 -28 0
-26 -27 -5 -23 -28 -6 -24 -7 -25 -4 0
-26 -24 -6 -28 -23 -5 -27 -4 -25 -7 0
-28 -6 -24 -26 -7 -25 -27 -4 -5 -23 0
-7 -25 -27 -28 -4 -5 -6 -23 -24 -26 0
-28 -27 -25 -7 -26 -24 -6 -23 -5 -4 0
-8 -9 -10 -11 -14 -15 -16 -19 -20 -23 0
-11 -10 -9 -8 -23 -20 -16 -19 -15 -14 0
-8 -16 -15 -14 -11 -10 -9 -23 -20 -19 0
-14 -15 -16 -8 -19 -20 -9 -23 -10 -11 0
-14 -9 -20 -19 -8 -16 -15 -11 -10 -23 0
-19 -20 -9 -14 -23 -10 -15 -11 -16 -8 0
-19 -15 -10 -23 -14 -9 -20 -8 -16 -11 0
-23 -10 -15 -19 -11 -16 -20 -8 -9 -14 0
-11 -16 -20 -23 -8 -9 -10 -14 -15 -19 0
-23 -20 -16 -11 -19 -15 -10 -14 -9 -8 0
-8 -9 -10 -12 -14 -15 -17 -19 -21 -24 0
-12 -10 -9 -8 -24 -21 -17 -19 -15 -14 0
-8 -17 -15 -14 -12 -10 -9 -24 -21 -19 0
-14 -15 -17 -8 -19 -21 -9 -24 -10 -12 0
-14 -9 -21 -19 -8 -17 -15 -12 -10 -24 0
-19 -21 -9 -14 -24 -10 -15 -12 -17 -8 0
-19 -15 -10 -24 -14 -9 -21 -8 -17 -12 0
-24 -10 -15 -19 -12 -17 -21 -8 -9 -14 0
-12 -17 -21 -24 -8 -9 -10 -14 -15 -19 0
-24 -21 -17 -12 -19 -15 -10 -14 -9 -8 0
-8 -9 -10 -13 -14 -15 -18 -19 -22 -25 0
-13 -10 -9 -8 -25 -22 -18 -19 -15 -14 0
-8 -18 -15 -14 -13 -10 -9 -25 -22 -19 0
-14 -15 -18 -8 -19 -22 -9 -25 -10 -13 0
-14 -9 -22 -19 -8 -18 -15 -13 -10 -25 0
-19 -22 -9 -14 -25 -10 -15 -13 -18 -8 0
-19 -15 -10 -25 -14 -9 -22 -8 -18 -13 0
-25 -10 -15 -19 -13 -18 -22 -8 -9 -14 0
-13 -18 -22 -25 -8 -9 -10 -14 -15 -19 0
-25 -22 -18 -13 -19 -15 -10 -14 -9 -8 0
-8 -9 -11 -12 -14 -16 -17 -20 -21 -26 0
-12 -11 -9 -8 -26 -21 -17 -20 -16 -14 0
-8 -17 -16 -14 -12 -11 -9 -26 -21 -20 0
-14 -16 -17 -8 -20 -21 -9 -26 -11 -12 0
-14 -9 -21 -20 -8 -17 -16 -12 -11 -26 0
-20 -21 -9 -14 -26 -11 -16 -12 -17 -8 0
-20 -16 -11 -26 -14 -9 -21 -8 -17 -12 0
-26 -11 -16 -20 -12 -17 -21 -8 -9 -14 0
-12 -17 -21 -26 -8 -9 -11 -14 -16 -20 0
-26 -21 -17 -12 -20 -16 -11 -14 -9 -8 0
-8 -9 -11 -13 -14 -16 -18 -20 -22 -27 0
-13 -11 -9 -8 -27 -22 -18 -20 -16 -14 0
-8 -18 -16 -14 -13 -11 -9 -27 -22 -20 0
-14 -16 -18 -8 -20 -22 -9 -27 -11 -13 0
-14 -9 -22 -20 -8 -18 -16 -13 -11 -27 0
-20 -22 -9 -14 -27 -11 -16 -13 -18 -8 0
-20 -16 -11 -27 -14 -9 -22 -8 -18 -13 0
-27 -11 -16 -20 -13 -18 -22 -8 -9 -14 0
-13 -18 -22 -27 -8 -9 -11 -14 -16 -20 0
-27 -22 -18 -13 -20 -16 -11 -14 -9 -8 0
-8 -9 -12 -13 -14 -17 -18 -21 -22 -28 0
-13 -12 -9 -8 -28 -22 -18 -21 -17 -14 0
-8 -18 -17 -14 -13 -12 -9 -28 -22 -21 0
-14 -17 -18 -8 -21 -22 -9 -28 -12 -13 0
-14 -9 -22 -21 -8 -18 -17 -13 -12 -28 0
-21 -22 -9 -14 -28 -12 -17 -13 -18 -8 0
-21 -17 -12 -28 -14 -9 -22 -8 -18 -13 0
-28 -12 -17 -21 -13 -18 -22 -8 -9 -14 0
-13 -18 -22 -28 -8 -9 -12 -14 -17 -21 0
-28 -22 -18 -13 -21 -17 -12 -14 -9 -8 0
-8 -10 -11 -12 -15 -16 -17 -23 -24 -26 0
-12 -11 -10 -8 -26 -24 -17 -23 -16 -15 0
-8 -17 -16 -15 -12 -11 -10 -26 -24 -23 0
-15 -16 -17 -8 -23 -24 -10 -26 -11 -12 0
-15 -10 -24 -23 -8 -17 -16 -12 -11 -26 0
-23 -24 -10 -15 -26 -11 -16 -12 -17 -8 0
-23 -16 -11 -26 -15 -10 -24 -8 -17 -12 0
-26 -11 -16 -23 -12 -17 -24 -8 -10 -15 0
-12 -17 -24 -26 -8 -10 -11 -15 -16 -23 0
-26 -24 -17 -12 -23 -16 -11 -15 -10 -8 0
-8 -10 -11 -13 -15 -16 -18 -23 -25 -27 0
-13 -11 -10 -8 -27 -25 -18 -23 -16 -15 0
-8 -18 -16 -15 -13 -11 -10 -27 -25 -23 0
-15 -16 -18 -8 -23 -25 -10 -27 -11 -13 0
-15 -10 -25 -23 -8 -18 -16 -13 -11 -27 0
-23 -25 -10 -15 -27 -11 -16 -13 -18 -8 0
-23 -16 -11 -27 -15 -10 -25 -8 -18 -13 0
-27 -11 -16 -23 -13 -18 -25 -8 -10 -15 0
-13 -18 -25 -27 -8 -10 -11 -15 -16 -23 0
-27 -25 -18 -13 -23 -16 -11 -15 -10 -8 0
-8 -10 -12 -13 -15 -17 -18 -24 -25 -28 0
-13 -12 -10 -8 -28 -25 -18 -24 -17 -15 0
-8 -18 -17 -15 -13 -12 -10 -28 -25 -24 0
-15 -17 -18 -8 -24 -25 -10 -28 -12 -13 0
-15 -10 -25 -24 -8 -18 -17 -13 -12 -28 0
-24 -25 -10 -15 -28 -12 -17 -13 -18 -8 0
-24 -17 -12 -28 -15 -10 -25 -8 -18 -13 0
-28 -12 -17 -24 -13 -18 -25 -8 -10 -15 0
-13 -18 -25 -28 -8 -10 -12 -15 -17 -24 0
-28 -25 -18 -13 -24 -17 -12 -15 -10 -8 0
-8 -11 -12 -13 -16 -17 -18 -26 -27 -28 0
-13 -12 -11 -8 -28 -27 -18 -26 -17 -16 0
-8 -18 -17 -16 -13 -12 -11 -28 -27 -26 0
-16 -17 -18 -8 -26 -27 -11 -28 -12 -13 0
-16 -11 -27 -26 -8 -18 -17 -13 -12 -28 0
-26 -27 -11 -16 -28 -12 -17 -13 -18 -8 0
-26 -17 -12 -28 -16 -11 -27 -8 -18 -13 0
-28 -12 -17 -26 -13 -18 -27 -8 -11 -16 0
-13 -18 -27 -28 -8 -11 -12 -16 -17 -26 0
-28 -27 -18 -13 -26 -17 -12 -16 -11 -8 0
-9 -10 -11 -12 -19 -20 -21 -23 -24 -26 0
-12 -11 -10 -9 -26 -24 -21 -23 -20 -19 0
-9 -21 -20 -19 -12 -11 -10 -26 -24 -23 0
-19 -20 -21 -9 -23 -24 -10 -26 -11 -12 0
-19 -10 -24 -23 -9 -21 -20 -12 -11 -26 0
-23 -24 -10 -19 -26 -11 -20 -12 -21 -9 0
-23 -20 -11 -26 -19 -10 -24 -9 -21 -12 0
-26 -11 -20 -23 -12 -21 -24 -9 -10 -19 0
-12 -21 -24 -26 -9 -10 -11 -19 -20 -23 0
-26 -24 -21 -12 -23 -20 -11 -19 -10 -9 0
-9 -10 -11 -13 -19 -20 -22 -23 -25 -27 0
-13 -11 -10 -9 -27 -25 -22 -23 -20 -19 0
-9 -22 -20 -19 -13 -11 -10 -27 -25 -23 0
-19 -20 -22 -9 -23 -25 -10 -27 -11 -13 0
-19 -10 -25 -23 -9 -22 -20 -13 -11 -27 0
-23 -25 -10 -19 -27 -11 -20 -13 -22 -9 0
-23 -20 -11 -27 -19 -10 -25 -9 -22 -13 0
-27 -11 -20 -23 -13 -22 -25 -9 -10 -19 0
-13 -22 -25 -27 -9 -10 -11 -19 -20 -23 0
-27 -25 -22 -13 -23 -20 -11 -19 -10 -9 0
-9 -10 -12 -13 -19 -21 -22 -24 -25 -28 0
-13 -12 -10 -9 -28 -25 -22 -24 -21 -19 0
-9 -22 -21 -19 -13 -12 -10 -28 -25 -24 0
-19 -21 -22 -9 -24 -25 -10 -28 -12 -13 0
-19 -10 -25 -24 -9 -22 -21 -13 -12 -28 0
-24 -25 -10 -19 -28 -12 -21 -13 -22 -9 0
-24 -21 -12 -28 -19 -10 -25 -9 -22 -13 0
-28 -12 -21 -24 -13 -22 -25 -9 -10 -19 0
-13 -22 -25 -28 -9 -10 -12 -19 -21 -24 0
-28 -25 -22 -13 -24 -21 -12 -19 -10 -9 0
-9 -11 -12 -13 -20 -21 -22 -26 -27 -28 0
-13 -12 -11 -9 -28 -27 -22 -26 -21 -20 0
-9 -22 -21 -20 -13 -12 -11 -28 -27 -26 0
-20 -21 -22 -9 -26 -27 -11 -28 -12 -13 0
-20 -11 -27 -26 -9 -22 -21 -13 -12 -28 0
-26 -27 -11 -20 -28 -12 -21 -13 -22 -9 0
-26 -21 -12 -28 -20 -11 -27 -9 -22 -13 0
-28 -12 -21 -26 -13 -22 -27 -9 -11 -20 0
-13 -22 -27 -28 -9 -11 -12 -20 -21 -26 0
-28 -27 -22 -13 -26 -21 -12 -20 -11 -9 0
-10 -11 -12 -13 -23 -24 -25 -26 -27 -28 0
-13 -12 -11 -10 -28 -27 -25 -26 -24 -23 0
-10 -25 -24 -23 -13 -12 -11 -28 -27 -26 0
-23 -24 -25 -10 -26 -27 -11 -28 -12 -13 0
-23 -11 -27 -26 -10 -25 -24 -13 -12 -28 0
-26 -27 -11 -23 -28 -12 -24 -13 -25 -10 0
-26 -24 -12 -28 -23 -11 -27 -10 -25 -13 0
-28 -12 -24 -26 -13 -25 -27 -10 -11 -23 0
-13 -25 -27 -28 -10 -11 -12 -23 -24 -26 0
-28 -27 -25 -13 -26 -24 -12 -23 -11 -10 0
-14 -15 -16 -17 -19 -20 -21 -23 -24 -26 0
-17 -16 -15 -14 -26 -24 -21 -23 -20 -19 0
-14 -21 -20 -19 -17 -16 -15 -26 -24 -23 0
-19 -20 -21 -14 -23 -24 -15 -26 -16 -17 0
-19 -15 -24 -23 -14 -21 -20 -17 -16 -26 0
-23 -24 -15 -19 -26 -16 -20 -17 -21 -14 0
-23 -20 -16 -26 -19 -15 -24 -14 -21 -17 0
-26 -16 -20 -23 -17 -21 -24 -14 -15 -19 0
-17 -21 -24 -26 -14 -15 -16 -19 -20 -23 0
-26 -24 -21 -17 -23 -20 -16 -19 -15 -14 0
-14 -15 -16 -18 -19 -20 -22 -23 -25 -27 0
-18 -16 -15 -14 -27 -25 -22 -23 -20 -19 0
-14 -22 -20 -19 -18 -16 -15 -27 -25 -23 0
-19 -20 -22 -14 -23 -25 -15 -27 -16 -18 0
-19 -15 -25 -23 -14 -22 -20 -18 -16 -27 0
-23 -25 -15 -19 -27 -16 -20 -18 -22 -14 0
-23 -20 -16 -27 -19 -15 -25 -14 -22 -18 0
-27 -16 -20 -23 -18 -22 -25 -14 -15 -19 0
-18 -22 -25 -27 -14 -15 -16 -19 -20 -23 0
-27 -25 -22 -18 -23 -20 -16 -19 -15 -14 0
-14 -15 -17 -18 -19 -21 -22 -24 -25 -28 0
-18 -17 -15 -14 -28 -25 -22 -24 -21 -19 0
-14 -22 -21 -19 -18 -17 -15 -28 -25 -24 0
-19 -21 -22 -14 -24 -25 -15 -28 -17 -18 0
-19 -15 -25 -24 -14 -22 -21 -18 -17 -28 0
-24 -25 -15 -19 -28 -17 -21 -18 -22 -14 0
-24 -21 -17 -28 -19 -15 -25 -14 -22 -18 0
-28 -17 -21 -24 -18 -22 -25 -14 -15 -19 0
-18 -22 -25 -28 -14 -15 -17 -19 -21 -24 0
-28 -25 -22 -18 -24 -21 -17 -19 -15 -14 0
-14 -16 -17 -18 -20 -21 -22 -26 -27 -28 0
-18 -17 -16 -14 -28 -27 -22 -26 -21 -20 0
-14 -22 -21 -20 -18 -17 -16 -28 -27 -26 0
-20 -21 -22 -14 -26 -27 -16 -28 -17 -18 0
-20 -16 -27 -26 -14 -22 -21 -18 -17 -28 0
-26 -27 -16 -20 -28 -17 -21 -18 -22 -14 0
-26 -21 -17 -28 -20 -16 -27 -14 -22 -18 0
-28 -17 -21 -26 -18 -22 -27 -14 -16 -20 0
-18 -22 -27 -28 -14 -16 -17 -20 -21 -26 0
-28 -27 -22 -18 -26 -21 -17 -20 -16 -14 0
-15 -16 -17 -18 -23 -24 -25 -26 -27 -28 0
-18 -17 -16 -15 -28 -27 -25 -26 -24 -23 0
-15 -25 -24 -23 -18 -17 -16 -28 -27 -26 0
-23 -24 -25 -15 -26 -27 -16 -28 -17 -18 0
-23 -16 -27 -26 -15 -25 -24 -18 -17 -28 0
-26 -27 -16 -23 -28 -17 -24 -18 -25 -15 0
-26 -24 -17 -28 -23 -16 -27 -15 -25 -18 0
-28 -17 -24 -26 -18 -25 -27 -15 -16 -23 0
-18 -25 -27 -28 -15 -16 -17 -23 -24 -26 0
-28 -27 -25 -18 -26 -24 -17 -23 -16 -15 0
-19 -20 -21 -22 -23 -24 -25 -26 -27 -28 0
-22 -21 -20 -19 -28 -27 -25 -26 -24 -23 0
-19 -25 -24 -23 -22 -21 -20 -28 -27 -26 0
-23 -24 -25 -19 -26 -27 -20 -28 -21 -22 0
-23 -20 -27 -26 -19 -25 -24 -22 -21 -28 0
-26 -27 -20 -23 -28 -21 -24 -22 -25 -19 0
-26 -24 -21 -28 -23 -20 -27 -19 -25 -22 0
-28 -21 -24 -26 -22 -25 -27 -19 -20 -23 0
-22 -25 -27 -28 -19 -20 -21 -23 -24 -26 0
-28 -27 -25 -22 -26 -24 -21 -23 -20 -19 0
