c Theorem B raw encoding: (P3alt,Dih(3)) vs (K_5,Dih(5)), n=9; UNSAT expected (proof leg); regenerated 2026-08-13
p cnf 36 1764
2 9 0
1 9 0
9 2 0
1 2 0
9 1 0
2 1 0
3 10 0
1 10 0
10 3 0
1 3 0
10 1 0
3 1 0
4 11 0
1 11 0
11 4 0
1 4 0
11 1 0
4 1 0
5 12 0
1 12 0
12 5 0
1 5 0
12 1 0
5 1 0
6 13 0
1 13 0
13 6 0
1 6 0
13 1 0
6 1 0
7 14 0
1 14 0
14 7 0
1 7 0
14 1 0
7 1 0
8 15 0
1 15 0
15 8 0
1 8 0
15 1 0
8 1 0
3 16 0
2 16 0
16 3 0
2 3 0
16 2 0
3 2 0
4 17 0
2 17 0
17 4 0
2 4 0
17 2 0
4 2 0
5 18 0
2 18 0
18 5 0
2 5 0
18 2 0
5 2 0
6 19 0
2 19 0
19 6 0
2 6 0
19 2 0
6 2 0
7 20 0
2 20 0
20 7 0
2 7 0
20 2 0
7 2 0
8 21 0
2 21 0
21 8 0
2 8 0
21 2 0
8 2 0
4 22 0
3 22 0
22 4 0
3 4 0
22 3 0
4 3 0
5 23 0
3 23 0
23 5 0
3 5 0
23 3 0
5 3 0
6 24 0
3 24 0
24 6 0
3 6 0
24 3 0
6 3 0
7 25 0
3 25 0
25 7 0
3 7 0
25 3 0
7 3 0
8 26 0
3 26 0
26 8 0
3 8 0
26 3 0
8 3 0
5 27 0
4 27 0
27 5 0
4 5 0
27 4 0
5 4 0
6 28 0
4 28 0
28 6 0
4 6 0
28 4 0
6 4 0
7 29 0
4 29 0
29 7 0
4 7 0
29 4 0
7 4 0
8 30 0
4 30 0
30 8 0
4 8 0
30 4 0
8 4 0
6 31 0
5 31 0
31 6 0
5 6 0
31 5 0
6 5 0
7 32 0
5 32 0
32 7 0
5 7 0
32 5 0
7 5 0
8 33 0
5 33 0
33 8 0
5 8 0
33 5 0
8 5 0
7 34 0
6 34 0
34 7 0
6 7 0
34 6 0
7 6 0
8 35 0
6 35 0
35 8 0
6 8 0
35 6 0
8 6 0
8 36 0
7 36 0
36 8 0
7 8 0
36 7 0
8 7 0
10 16 0
9 16 0
16 10 0
9 10 0
16 9 0
10 9 0
11 17 0
9 17 0
17 11 0
9 11 0
17 9 0
11 9 0
12 18 0
9 18 0
18 12 0
9 12 0
18 9 0
12 9 0
13 19 0
9 19 0
19 13 0
9 13 0
19 9 0
13 9 0
14 20 0
9 20 0
20 14 0
9 14 0
20 9 0
14 9 0
15 21 0
9 21 0
21 15 0
9 15 0
21 9 0
15 9 0
11 22 0
10 22 0
22 11 0
10 11 0
22 10 0
11 10 0
12 23 0
10 23 0
23 12 0
10 12 0
23 10 0
12 10 0
13 24 0
10 24 0
24 13 0
10 13 0
24 10 0
13 10 0
14 25 0
10 25 0
25 14 0
10 14 0
25 10 0
14 10 0
15 26 0
10 26 0
26 15 0
10 15 0
26 10 0
15 10 0
12 27 0
11 27 0
27 12 0
11 12 0
27 11 0
12 11 0
13 28 0
11 28 0
28 13 0
11 13 0
28 11 0
13 11 0
14 29 0
11 29 0
29 14 0
11 14 0
29 11 0
14 11 0
15 30 0
11 30 0
30 15 0
11 15 0
30 11 0
15 11 0
13 31 0
12 31 0
31 13 0
12 13 0
31 12 0
13 12 0
14 32 0
12 32 0
32 14 0
12 14 0
32 12 0
14 12 0
15 33 0
12 33 0
33 15 0
12 15 0
33 12 0
15 12 0
14 34 0
13 34 0
34 14 0
13 14 0
34 13 0
14 13 0
15 35 0
13 35 0
35 15 0
13 15 0
35 13 0
15 13 0
15 36 0
14 36 0
36 15 0
14 15 0
36 14 0
15 14 0
17 22 0
16 22 0
22 17 0
16 17 0
22 16 0
17 16 0
18 23 0
16 23 0
23 18 0
16 18 0
23 16 0
18 16 0
19 24 0
16 24 0
24 19 0
16 19 0
24 16 0
19 16 0
20 25 0
16 25 0
25 20 0
16 20 0
25 16 0
20 16 0
21 26 0
16 26 0
26 21 0
16 21 0
26 16 0
21 16 0
18 27 0
17 27 0
27 18 0
17 18 0
27 17 0
18 17 0
19 28 0
17 28 0
28 19 0
17 19 0
28 17 0
19 17 0
20 29 0
17 29 0
29 20 0
17 20 0
29 17 0
20 17 0
21 30 0
17 30 0
30 21 0
17 21 0
30 17 0
21 17 0
19 31 0
18 31 0
31 19 0
18 19 0
31 18 0
19 18 0
20 32 0
18 32 0
32 20 0
18 20 0
32 18 0
20 18 0
21 33 0
18 33 0
33 21 0
18 21 0
33 18 0
21 18 0
20 34 0
19 34 0
34 20 0
19 20 0
34 19 0
20 19 0
21 35 0
19 35 0
35 21 0
19 21 0
35 19 0
21 19 0
21 36 0
20 36 0
36 21 0
20 21 0
36 20 0
21 20 0
23 27 0
22 27 0
27 23 0
22 23 0
27 22 0
23 22 0
24 28 0
22 28 0
28 24 0
22 24 0
28 22 0
24 22 0
25 29 0
22 29 0
29 25 0
22 25 0
29 22 0
25 22 0
26 30 0
22 30 0
30 26 0
22 26 0
30 22 0
26 22 0
24 31 0
23 31 0
31 24 0
23 24 0
31 23 0
24 23 0
25 32 0
23 32 0
32 25 0
23 25 0
32 23 0
25 23 0
26 33 0
23 33 0
33 26 0
23 26 0
33 23 0
26 23 0
25 34 0
24 34 0
34 25 0
24 25 0
34 24 0
25 24 0
26 35 0
24 35 0
35 26 0
24 26 0
35 24 0
26 24 0
26 36 0
25 36 0
36 26 0
25 26 0
36 25 0
26 25 0
28 31 0
27 31 0
31 28 0
27 28 0
31 27 0
28 27 0
29 32 0
27 32 0
32 29 0
27 29 0
32 27 0
29 27 0
30 33 0
27 33 0
33 30 0
27 30 0
33 27 0
30 27 0
29 34 0
28 34 0
34 29 0
28 29 0
34 28 0
29 28 0
30 35 0
28 35 0
35 30 0
28 30 0
35 28 0
30 28 0
30 36 0
29 36 0
36 30 0
29 30 0
36 29 0
30 29 0
32 34 0
31 34 0
34 32 0
31 32 0
34 31 0
32 31 0
33 35 0
31 35 0
35 33 0
31 33 0
35 31 0
33 31 0
33 36 0
32 36 0
36 33 0
32 33 0
36 32 0
33 32 0
35 36 0
34 36 0
36 35 0
34 35 0
36 34 0
35 34 0
-1 -2 -3 -4 -9 -10 -11 -16 -17 -22 0
-4 -3 -2 -1 -22 -17 -11 -16 -10 -9 0
-1 -11 -10 -9 -4 -3 -2 -22 -17 -16 0
-9 -10 -11 -1 -16 -17 -2 -22 -3 -4 0
-9 -2 -17 -16 -1 -11 -10 -4 -3 -22 0
-16 -17 -2 -9 -22 -3 -10 -4 -11 -1 0
-16 -10 -3 -22 -9 -2 -17 -1 -11 -4 0
-22 -3 -10 -16 -4 -11 -17 -1 -2 -9 0
-4 -11 -17 -22 -1 -2 -3 -9 -10 -16 0
-22 -17 -11 -4 -16 -10 -3 -9 -2 -1 0
-1 -2 -3 -5 -9 -10 -12 -16 -18 -23 0
-5 -3 -2 -1 -23 -18 -12 -16 -10 -9 0
-1 -12 -10 -9 -5 -3 -2 -23 -18 -16 0
-9 -10 -12 -1 -16 -18 -2 -23 -3 -5 0
-9 -2 -18 -16 -1 -12 -10 -5 -3 -23 0
-16 -18 -2 -9 -23 -3 -10 -5 -12 -1 0
-16 -10 -3 -23 -9 -2 -18 -1 -12 -5 0
-23 -3 -10 -16 -5 -12 -18 -1 -2 -9 0
-5 -12 -18 -23 -1 -2 -3 -9 -10 -16 0
-23 -18 -12 -5 -16 -10 -3 -9 -2 -1 0
-1 -2 -3 -6 -9 -10 -13 -16 -19 -24 0
-6 -3 -2 -1 -24 -19 -13 -16 -10 -9 0
-1 -13 -10 -9 -6 -3 -2 -24 -19 -16 0
-9 -10 -13 -1 -16 -19 -2 -24 -3 -6 0
-9 -2 -19 -16 -1 -13 -10 -6 -3 -24 0
-16 -19 -2 -9 -24 -3 -10 -6 -13 -1 0
-16 -10 -3 -24 -9 -2 -19 -1 -13 -6 0
-24 -3 -10 -16 -6 -13 -19 -1 -2 -9 0
-6 -13 -19 -24 -1 -2 -3 -9 -10 -16 0
-24 -19 -13 -6 -16 -10 -3 -9 -2 -1 0
-1 -2 -3 -7 -9 -10 -14 -16 -20 -25 0
-7 -3 -2 -1 -25 -20 -14 -16 -10 -9 0
-1 -14 -10 -9 -7 -3 -2 -25 -20 -16 0
-9 -10 -14 -1 -16 -20 -2 -25 -3 -7 0
-9 -2 -20 -16 -1 -14 -10 -7 -3 -25 0
-16 -20 -2 -9 -25 -3 -10 -7 -14 -1 0
-16 -10 -3 -25 -9 -2 -20 -1 -14 -7 0
-25 -3 -10 -16 -7 -14 -20 -1 -2 -9 0
-7 -14 -20 -25 -1 -2 -3 -9 -10 -16 0
-25 -20 -14 -7 -16 -10 -3 -9 -2 -1 0
-1 -2 -3 -8 -9 -10 -15 -16 -21 -26 0
-8 -3 -2 -1 -26 -21 -15 -16 -10 -9 0
-1 -15 -10 -9 -8 -3 -2 -26 -21 -16 0
-9 -10 -15 -1 -16 -21 -2 -26 -3 -8 0
-9 -2 -21 -16 -1 -15 -10 -8 -3 -26 0
-16 -21 -2 -9 -26 -3 -10 -8 -15 -1 0
-16 -10 -3 -26 -9 -2 -21 -1 -15 -8 0
-26 -3 -10 -16 -8 -15 -21 -1 -2 -9 0
-8 -15 -21 -26 -1 -2 -3 -9 -10 -16 0
-26 -21 -15 -8 -16 -10 -3 -9 -2 -1 0
-1 -2 -4 -5 -9 -11 -12 -17 -18 -27 0
-5 -4 -2 -1 -27 -18 -12 -17 -11 -9 0
-1 -12 -11 -9 -5 -4 -2 -27 -18 -17 0
-9 -11 -12 -1 -17 -18 -2 -27 -4 -5 0
-9 -2 -18 -17 -1 -12 -11 -5 -4 -27 0
-17 -18 -2 -9 -27 -4 -11 -5 -12 -1 0
-17 -11 -4 -27 -9 -2 -18 -1 -12 -5 0
-27 -4 -11 -17 -5 -12 -18 -1 -2 -9 0
-5 -12 -18 -27 -1 -2 -4 -9 -11 -17 0
-27 -18 -12 -5 -17 -11 -4 -9 -2 -1 0
-1 -2 -4 -6 -9 -11 -13 -17 -19 -28 0
-6 -4 -2 -1 -28 -19 -13 -17 -11 -9 0
-1 -13 -11 -9 -6 -4 -2 -28 -19 -17 0
-9 -11 -13 -1 -17 -19 -2 -28 -4 -6 0
-9 -2 -19 -17 -1 -13 -11 -6 -4 -28 0
-17 -19 -2 -9 -28 -4 -11 -6 -13 -1 0
-17 -11 -4 -28 -9 -2 -19 -1 -13 -6 0
-28 -4 -11 -17 -6 -13 -19 -1 -2 -9 0
-6 -13 -19 -28 -1 -2 -4 -9 -11 -17 0
-28 -19 -13 -6 -17 -11 -4 -9 -2 -1 0
-1 -2 -4 -7 -9 -11 -14 -17 -20 -29 0
-7 -4 -2 -1 -29 -20 -14 -17 -11 -9 0
-1 -14 -11 -9 -7 -4 -2 -29 -20 -17 0
-9 -11 -14 -1 -17 -20 -2 -29 -4 -7 0
-9 -2 -20 -17 -1 -14 -11 -7 -4 -29 0
-17 -20 -2 -9 -29 -4 -11 -7 -14 -1 0
-17 -11 -4 -29 -9 -2 -20 -1 -14 -7 0
-29 -4 -11 -17 -7 -14 -20 -1 -2 -9 0
-7 -14 -20 -29 -1 -2 -4 -9 -11 -17 0
-29 -20 -14 -7 -17 -11 -4 -9 -2 -1 0
-1 -2 -4 -8 -9 -11 -15 -17 -21 -30 0
-8 -4 -2 -1 -30 -21 -15 -17 -11 -9 0
-1 -15 -11 -9 -8 -4 -2 -30 -21 -17 0
-9 -11 -15 -1 -17 -21 -2 -30 -4 -8 0
-9 -2 -21 -17 -1 -15 -11 -8 -4 -30 0
-17 -21 -2 -9 -30 -4 -11 -8 -15 -1 0
-17 -11 -4 -30 -9 -2 -21 -1 -15 -8 0
-30 -4 -11 -17 -8 -15 -21 -1 -2 -9 0
-8 -15 -21 -30 -1 -2 -4 -9 -11 -17 0
-30 -21 -15 -8 -17 -11 -4 -9 -2 -1 0
-1 -2 -5 -6 -9 -12 -13 -18 -19 -31 0
-6 -5 -2 -1 -31 -19 -13 -18 -12 -9 0
-1 -13 -12 -9 -6 -5 -2 -31 -19 -18 0
-9 -12 -13 -1 -18 -19 -2 -31 -5 -6 0
-9 -2 -19 -18 -1 -13 -12 -6 -5 -31 0
-18 -19 -2 -9 -31 -5 -12 -6 -13 -1 0
-18 -12 -5 -31 -9 -2 -19 -1 -13 -6 0
-31 -5 -12 -18 -6 -13 -19 -1 -2 -9 0
-6 -13 -19 -31 -1 -2 -5 -9 -12 -18 0
-31 -19 -13 -6 -18 -12 -5 -9 -2 -1 0
-1 -2 -5 -7 -9 -12 -14 -18 -20 -32 0
-7 -5 -2 -1 -32 -20 -14 -18 -12 -9 0
-1 -14 -12 -9 -7 -5 -2 -32 -20 -18 0
-9 -12 -14 -1 -18 -20 -2 -32 -5 -7 0
-9 -2 -20 -18 -1 -14 -12 -7 -5 -32 0
-18 -20 -2 -9 -32 -5 -12 -7 -14 -1 0
-18 -12 -5 -32 -9 -2 -20 -1 -14 -7 0
-32 -5 -12 -18 -7 -14 -20 -1 -2 -9 0
-7 -14 -20 -32 -1 -2 -5 -9 -12 -18 0
-32 -20 -14 -7 -18 -12 -5 -9 -2 -1 0
-1 -2 -5 -8 -9 -12 -15 -18 -21 -33 0
-8 -5 -2 -1 -33 -21 -15 -18 -12 -9 0
-1 -15 -12 -9 -8 -5 -2 -33 -21 -18 0
-9 -12 -15 -1 -18 -21 -2 -33 -5 -8 0
-9 -2 -21 -18 -1 -15 -12 -8 -5 -33 0
-18 -21 -2 -9 -33 -5 -12 -8 -15 -1 0
-18 -12 -5 -33 -9 -2 -21 -1 -15 -8 0
-33 -5 -12 -18 -8 -15 -21 -1 -2 -9 0
-8 -15 -21 -33 -1 -2 -5 -9 -12 -18 0
-33 -21 -15 -8 -18 -12 -5 -9 -2 -1 0
-1 -2 -6 -7 -9 -13 -14 -19 -20 -34 0
-7 -6 -2 -1 -34 -20 -14 -19 -13 -9 0
-1 -14 -13 -9 -7 -6 -2 -34 -20 -19 0
-9 -13 -14 -1 -19 -20 -2 -34 -6 -7 0
-9 -2 -20 -19 -1 -14 -13 -7 -6 -34 0
-19 -20 -2 -9 -34 -6 -13 -7 -14 -1 0
-19 -13 -6 -34 -9 -2 -20 -1 -14 -7 0
-34 -6 -13 -19 -7 -14 -20 -1 -2 -9 0
-7 -14 -20 -34 -1 -2 -6 -9 -13 -19 0
-34 -20 -14 -7 -19 -13 -6 -9 -2 -1 0
-1 -2 -6 -8 -9 -13 -15 -19 -21 -35 0
-8 -6 -2 -1 -35 -21 -15 -19 -13 -9 0
-1 -15 -13 -9 -8 -6 -2 -35 -21 -19 0
-9 -13 -15 -1 -19 -21 -2 -35 -6 -8 0
-9 -2 -21 -19 -1 -15 -13 -8 -6 -35 0
-19 -21 -2 -9 -35 -6 -13 -8 -15 -1 0
-19 -13 -6 -35 -9 -2 -21 -1 -15 -8 0
-35 -6 -13 -19 -8 -15 -21 -1 -2 -9 0
-8 -15 -21 -35 -1 -2 -6 -9 -13 -19 0
-35 -21 -15 -8 -19 -13 -6 -9 -2 -1 0
-1 -2 -7 -8 -9 -14 -15 -20 -21 -36 0
-8 -7 -2 -1 -36 -21 -15 -20 -14 -9 0
-1 -15 -14 -9 -8 -7 -2 -36 -21 -20 0
-9 -14 -15 -1 -20 -21 -2 -36 -7 -8 0
-9 -2 -21 -20 -1 -15 -14 -8 -7 -36 0
-20 -21 -2 -9 -36 -7 -14 -8 -15 -1 0
-20 -14 -7 -36 -9 -2 -21 -1 -15 -8 0
-36 -7 -14 -20 -8 -15 -21 -1 -2 -9 0
-8 -15 -21 -36 -1 -2 -7 -9 -14 -20 0
-36 -21 -15 -8 -20 -14 -7 -9 -2 -1 0
-1 -3 -4 -5 -10 -11 -12 -22 -23 -27 0
-5 -4 -3 -1 -27 -23 -12 -22 -11 -10 0
-1 -12 -11 -10 -5 -4 -3 -27 -23 -22 0
-10 -11 -12 -1 -22 -23 -3 -27 -4 -5 0
-10 -3 -23 -22 -1 -12 -11 -5 -4 -27 0
-22 -23 -3 -10 -27 -4 -11 -5 -12 -1 0
-22 -11 -4 -27 -10 -3 -23 -1 -12 -5 0
-27 -4 -11 -22 -5 -12 -23 -1 -3 -10 0
-5 -12 -23 -27 -1 -3 -4 -10 -11 -22 0
-27 -23 -12 -5 -22 -11 -4 -10 -3 -1 0
-1 -3 -4 -6 -10 -11 -13 -22 -24 -28 0
-6 -4 -3 -1 -28 -24 -13 -22 -11 -10 0
-1 -13 -11 -10 -6 -4 -3 -28 -24 -22 0
-10 -11 -13 -1 -22 -24 -3 -28 -4 -6 0
-10 -3 -24 -22 -1 -13 -11 -6 -4 -28 0
-22 -24 -3 -10 -28 -4 -11 -6 -13 -1 0
-22 -11 -4 -28 -10 -3 -24 -1 -13 -6 0
-28 -4 -11 -22 -6 -13 -24 -1 -3 -10 0
-6 -13 -24 -28 -1 -3 -4 -10 -11 -22 0
-28 -24 -13 -6 -22 -11 -4 -10 -3 -1 0
-1 -3 -4 -7 -10 -11 -14 -22 -25 -29 0
-7 -4 -3 -1 -29 -25 -14 -22 -11 -10 0
-1 -14 -11 -10 -7 -4 -3 -29 -25 -22 0
-10 -11 -14 -1 -22 -25 -3 -29 -4 -7 0
-10 -3 -25 -22 -1 -14 -11 -7 -4 -29 0
-22 -25 -3 -10 -29 -4 -11 -7 -14 -1 0
-22 -11 -4 -29 -10 -3 -25 -1 -14 -7 0
-29 -4 -11 -22 -7 -14 -25 -1 -3 -10 0
-7 -14 -25 -29 -1 -3 -4 -10 -11 -22 0
-29 -25 -14 -7 -22 -11 -4 -10 -3 -1 0
-1 -3 -4 -8 -10 -11 -15 -22 -26 -30 0
-8 -4 -3 -1 -30 -26 -15 -22 -11 -10 0
-1 -15 -11 -10 -8 -4 -3 -30 -26 -22 0
-10 -11 -15 -1 -22 -26 -3 -30 -4 -8 0
-10 -3 -26 -22 -1 -15 -11 -8 -4 -30 0
-22 -26 -3 -10 -30 -4 -11 -8 -15 -1 0
-22 -11 -4 -30 -10 -3 -26 -1 -15 -8 0
-30 -4 -11 -22 -8 -15 -26 -1 -3 -10 0
-8 -15 -26 -30 -1 -3 -4 -10 -11 -22 0
-30 -26 -15 -8 -22 -11 -4 -10 -3 -1 0
-1 -3 -5 -6 -10 -12 -13 -23 -24 -31 0
-6 -5 -3 -1 -31 -24 -13 -23 -12 -10 0
-1 -13 -12 -10 -6 -5 -3 -31 -24 -23 0
-10 -12 -13 -1 -23 -24 -3 -31 -5 -6 0
-10 -3 -24 -23 -1 -13 -12 -6 -5 -31 0
-23 -24 -3 -10 -31 -5 -12 -6 -13 -1 0
-23 -12 -5 -31 -10 -3 -24 -1 -13 -6 0
-31 -5 -12 -23 -6 -13 -24 -1 -3 -10 0
-6 -13 -24 -31 -1 -3 -5 -10 -12 -23 0
-31 -24 -13 -6 -23 -12 -5 -10 -3 -1 0
-1 -3 -5 -7 -10 -12 -14 -23 -25 -32 0
-7 -5 -3 -1 -32 -25 -14 -23 -12 -10 0
-1 -14 -12 -10 -7 -5 -3 -32 -25 -23 0
-10 -12 -14 -1 -23 -25 -3 -32 -5 -7 0
-10 -3 -25 -23 -1 -14 -12 -7 -5 -32 0
-23 -25 -3 -10 -32 -5 -12 -7 -14 -1 0
-23 -12 -5 -32 -10 -3 -25 -1 -14 -7 0
-32 -5 -12 -23 -7 -14 -25 -1 -3 -10 0
-7 -14 -25 -32 -1 -3 -5 -10 -12 -23 0
-32 -25 -14 -7 -23 -12 -5 -10 -3 -1 0
-1 -3 -5 -8 -10 -12 -15 -23 -26 -33 0
-8 -5 -3 -1 -33 -26 -15 -23 -12 -10 0
-1 -15 -12 -10 -8 -5 -3 -33 -26 -23 0
-10 -12 -15 -1 -23 -26 -3 -33 -5 -8 0
-10 -3 -26 -23 -1 -15 -12 -8 -5 -33 0
-23 -26 -3 -10 -33 -5 -12 -8 -15 -1 0
-23 -12 -5 -33 -10 -3 -26 -1 -15 -8 0
-33 -5 -12 -23 -8 -15 -26 -1 -3 -10 0
-8 -15 -26 -33 -1 -3 -5 -10 -12 -23 0
-33 -26 -15 -8 -23 -12 -5 -10 -3 -1 0
-1 -3 -6 -7 -10 -13 -14 -24 -25 -34 0
-7 -6 -3 -1 -34 -25 -14 -24 -13 -10 0
-1 -14 -13 -10 -7 -6 -3 -34 -25 -24 0
-10 -13 -14 -1 -24 -25 -3 -34 -6 -7 0
-10 -3 -25 -24 -1 -14 -13 -7 -6 -34 0
-24 -25 -3 -10 -34 -6 -13 -7 -14 -1 0
-24 -13 -6 -34 -10 -3 -25 -1 -14 -7 0
-34 -6 -13 -24 -7 -14 -25 -1 -3 -10 0
-7 -14 -25 -34 -1 -3 -6 -10 -13 -24 0
-34 -25 -14 -7 -24 -13 -6 -10 -3 -1 0
-1 -3 -6 -8 -10 -13 -15 -24 -26 -35 0
-8 -6 -3 -1 -35 -26 -15 -24 -13 -10 0
-1 -15 -13 -10 -8 -6 -3 -35 -26 -24 0
-10 -13 -15 -1 -24 -26 -3 -35 -6 -8 0
-10 -3 -26 -24 -1 -15 -13 -8 -6 -35 0
-24 -26 -3 -10 -35 -6 -13 -8 -15 -1 0
-24 -13 -6 -35 -10 -3 -26 -1 -15 -8 0
-35 -6 -13 -24 -8 -15 -26 -1 -3 -10 0
-8 -15 -26 -35 -1 -3 -6 -10 -13 -24 0
-35 -26 -15 -8 -24 -13 -6 -10 -3 -1 0
-1 -3 -7 -8 -10 -14 -15 -25 -26 -36 0
-8 -7 -3 -1 -36 -26 -15 -25 -14 -10 0
-1 -15 -14 -10 -8 -7 -3 -36 -26 -25 0
-10 -14 -15 -1 -25 -26 -3 -36 -7 -8 0
-10 -3 -26 -25 -1 -15 -14 -8 -7 -36 0
-25 -26 -3 -10 -36 -7 -14 -8 -15 -1 0
-25 -14 -7 -36 -10 -3 -26 -1 -15 -8 0
-36 -7 -14 -25 -8 -15 -26 -1 -3 -10 0
-8 -15 -26 -36 -1 -3 -7 -10 -14 -25 0
-36 -26 -15 -8 -25 -14 -7 -10 -3 -1 0
-1 -4 -5 -6 -11 -12 -13 -27 -28 -31 0
-6 -5 -4 -1 -31 -28 -13 -27 -12 -11 0
-1 -13 -12 -11 -6 -5 -4 -31 -28 -27 0
-11 -12 -13 -1 -27 -28 -4 -31 -5 -6 0
-11 -4 -28 -27 -1 -13 -12 -6 -5 -31 0
-27 -28 -4 -11 -31 -5 -12 -6 -13 -1 0
-27 -12 -5 -31 -11 -4 -28 -1 -13 -6 0
-31 -5 -12 -27 -6 -13 -28 -1 -4 -11 0
-6 -13 -28 -31 -1 -4 -5 -11 -12 -27 0
-31 -28 -13 -6 -27 -12 -5 -11 -4 -1 0
-1 -4 -5 -7 -11 -12 -14 -27 -29 -32 0
-7 -5 -4 -1 -32 -29 -14 -27 -12 -11 0
-1 -14 -12 -11 -7 -5 -4 -32 -29 -27 0
-11 -12 -14 -1 -27 -29 -4 -32 -5 -7 0
-11 -4 -29 -27 -1 -14 -12 -7 -5 -32 0
-27 -29 -4 -11 -32 -5 -12 -7 -14 -1 0
-27 -12 -5 -32 -11 -4 -29 -1 -14 -7 0
-32 -5 -12 -27 -7 -14 -29 -1 -4 -11 0
-7 -14 -29 -32 -1 -4 -5 -11 -12 -27 0
-32 -29 -14 -7 -27 -12 -5 -11 -4 -1 0
-1 -4 -5 -8 -11 -12 -15 -27 -30 -33 0
-8 -5 -4 -1 -33 -30 -15 -27 -12 -11 0
-1 -15 -12 -11 -8 -5 -4 -33 -30 -27 0
-11 -12 -15 -1 -27 -30 -4 -33 -5 -8 0
-11 -4 -30 -27 -1 -15 -12 -8 -5 -33 0
-27 -30 -4 -11 -33 -5 -12 -8 -15 -1 0
-27 -12 -5 -33 -11 -4 -30 -1 -15 -8 0
-33 -5 -12 -27 -8 -15 -30 -1 -4 -11 0
-8 -15 -30 -33 -1 -4 -5 -11 -12 -27 0
-33 -30 -15 -8 -27 -12 -5 -11 -4 -1 0
-1 -4 -6 -7 -11 -13 -14 -28 -29 -34 0
-7 -6 -4 -1 -34 -29 -14 -28 -13 -11 0
-1 -14 -13 -11 -7 -6 -4 -34 -29 -28 0
-11 -13 -14 -1 -28 -29 -4 -34 -6 -7 0
-11 -4 -29 -28 -1 -14 -13 -7 -6 -34 0
-28 -29 -4 -11 -34 -6 -13 -7 -14 -1 0
-28 -13 -6 -34 -11 -4 -29 -1 -14 -7 0
-34 -6 -13 -28 -7 -14 -29 -1 -4 -11 0
-7 -14 -29 -34 -1 -4 -6 -11 -13 -28 0
-34 -29 -14 -7 -28 -13 -6 -11 -4 -1 0
-1 -4 -6 -8 -11 -13 -15 -28 -30 -35 0
-8 -6 -4 -1 -35 -30 -15 -28 -13 -11 0
-1 -15 -13 -11 -8 -6 -4 -35 -30 -28 0
-11 -13 -15 -1 -28 -30 -4 -35 -6 -8 0
-11 -4 -30 -28 -1 -15 -13 -8 -6 -35 0
-28 -30 -4 -11 -35 -6 -13 -8 -15 -1 0
-28 -13 -6 -35 -11 -4 -30 -1 -15 -8 0
-35 -6 -13 -28 -8 -15 -30 -1 -4 -11 0
-8 -15 -30 -35 -1 -4 -6 -11 -13 -28 0
-35 -30 -15 -8 -28 -13 -6 -11 -4 -1 0
-1 -4 -7 -8 -11 -14 -15 -29 -30 -36 0
-8 -7 -4 -1 -36 -30 -15 -29 -14 -11 0
-1 -15 -14 -11 -8 -7 -4 -36 -30 -29 0
-11 -14 -15 -1 -29 -30 -4 -36 -7 -8 0
-11 -4 -30 -29 -1 -15 -14 -8 -7 -36 0
-29 -30 -4 -11 -36 -7 -14 -8 -15 -1 0
-29 -14 -7 -36 -11 -4 -30 -1 -15 -8 0
-36 -7 -14 -29 -8 -15 -30 -1 -4 -11 0
-8 -15 -30 -36 -1 -4 -7 -11 -14 -29 0
-36 -30 -15 -8 -29 -14 -7 -11 -4 -1 0
-1 -5 -6 -7 -12 -13 -14 -31 -32 -34 0
-7 -6 -5 -1 -34 -32 -14 -31 -13 -12 0
-1 -14 -13 -12 -7 -6 -5 -34 -32 -31 0
-12 -13 -14 -1 -31 -32 -5 -34 -6 -7 0
-12 -5 -32 -31 -1 -14 -13 -7 -6 -34 0
-31 -32 -5 -12 -34 -6 -13 -7 -14 -1 0
-31 -13 -6 -34 -12 -5 -32 -1 -14 -7 0
-34 -6 -13 -31 -7 -14 -32 -1 -5 -12 0
-7 -14 -32 -34 -1 -5 -6 -12 -13 -31 0
-34 -32 -14 -7 -31 -13 -6 -12 -5 -1 0
-1 -5 -6 -8 -12 -13 -15 -31 -33 -35 0
-8 -6 -5 -1 -35 -33 -15 -31 -13 -12 0
-1 -15 -13 -12 -8 -6 -5 -35 -33 -31 0
-12 -13 -15 -1 -31 -33 -5 -35 -6 -8 0
-12 -5 -33 -31 -1 -15 -13 -8 -6 -35 0
-31 -33 -5 -12 -35 -6 -13 -8 -15 -1 0
-31 -13 -6 -35 -12 -5 -33 -1 -15 -8 0
-35 -6 -13 -31 -8 -15 -33 -1 -5 -12 0
-8 -15 -33 -35 -1 -5 -6 -12 -13 -31 0
-35 -33 -15 -8 -31 -13 -6 -12 -5 -1 0
-1 -5 -7 -8 -12 -14 -15 -32 -33 -36 0
-8 -7 -5 -1 -36 -33 -15 -32 -14 -12 0
-1 -15 -14 -12 -8 -7 -5 -36 -33 -32 0
-12 -14 -15 -1 -32 -33 -5 -36 -7 -8 0
-12 -5 -33 -32 -1 -15 -14 -8 -7 -36 0
-32 -33 -5 -12 -36 -7 -14 -8 -15 -1 0
-32 -14 -7 -36 -12 -5 -33 -1 -15 -8 0
-36 -7 -14 -32 -8 -15 -33 -1 -5 -12 0
-8 -15 -33 -36 -1 -5 -7 -12 -14 -32 0
-36 -33 -15 -8 -32 -14 -7 -12 -5 -1 0
-1 -6 -7 -8 -13 -14 -15 -34 -35 -36 0
-8 -7 -6 -1 -36 -35 -15 -34 -14 -13 0
-1 -15 -14 -13 -8 -7 -6 -36 -35 -34 0
-13 -14 -15 -1 -34 -35 -6 -36 -7 -8 0
-13 -6 -35 -34 -1 -15 -14 -8 -7 -36 0
-34 -35 -6 -13 -36 -7 -14 -8 -15 -1 0
-34 -14 -7 -36 -13 -6 -35 -1 -15 -8 0
-36 -7 -14 -34 -8 -15 -35 -1 -6 -13 0
-8 -15 -35 -36 -1 -6 -7 -13 -14 -34 0
-36 -35 -15 -8 -34 -14 -7 -13 -6 -1 0
-2 -3 -4 -5 -16 -17 -18 -22 -23 -27 0
-5 -4 -3 -2 -27 -23 -18 -22 -17 -16 0
-2 -18 -17 -16 -5 -4 -3 -27 -23 -22 0
-16 -17 -18 -2 -22 -23 -3 -27 -4 -5 0
-16 -3 -23 -22 -2 -18 -17 -5 -4 -27 0
-22 -23 -3 -16 -27 -4 -17 -5 -18 -2 0
-22 -17 -4 -27 -16 -3 -23 -2 -18 -5 0
-27 -4 -17 -22 -5 -18 -23 -2 -3 -16 0
-5 -18 -23 -27 -2 -3 -4 -16 -17 -22 0
-27 -23 -18 -5 -22 -17 -4 -16 -3 -2 0
-2 -3 -4 -6 -16 -17 -19 -22 -24 -28 0
-6 -4 -3 -2 -28 -24 -19 -22 -17 -16 0
-2 -19 -17 -16 -6 -4 -3 -28 -24 -22 0
-16 -17 -19 -2 -22 -24 -3 -28 -4 -6 0
-16 -3 -24 -22 -2 -19 -17 -6 -4 -28 0
-22 -24 -3 -16 -28 -4 -17 -6 -19 -2 0
-22 -17 -4 -28 -16 -3 -24 -2 -19 -6 0
-28 -4 -17 -22 -6 -19 -24 -2 -3 -16 0
-6 -19 -24 -28 -2 -3 -4 -16 -17 -22 0
-28 -24 -19 -6 -22 -17 -4 -16 -3 -2 0
-2 -3 -4 -7 -16 -17 -20 -22 -25 -29 0
-7 -4 -3 -2 -29 -25 -20 -22 -17 -16 0
-2 -20 -17 -16 -7 -4 -3 -29 -25 -22 0
-16 -17 -20 -2 -22 -25 -3 -29 -4 -7 0
-16 -3 -25 -22 -2 -20 -17 -7 -4 -29 0
-22 -25 -3 -16 -29 -4 -17 -7 -20 -2 0
-22 -17 -4 -29 -16 -3 -25 -2 -20 -7 0
-29 -4 -17 -22 -7 -20 -25 -2 -3 -16 0
-7 -20 -25 -29 -2 -3 -4 -16 -17 -22 0
-29 -25 -20 -7 -22 -17 -4 -16 -3 -2 0
-2 -3 -4 -8 -16 -17 -21 -22 -26 -30 0
-8 -4 -3 -2 -30 -26 -21 -22 -17 -16 0
-2 -21 -17 -16 -8 -4 -3 -30 -26 -22 0
-16 -17 -21 -2 -22 -26 -3 -30 -4 -8 0
-16 -3 -26 -22 -2 -21 -17 -8 -4 -30 0
-22 -26 -3 -16 -30 -4 -17 -8 -21 -2 0
-22 -17 -4 -30 -16 -3 -26 -2 -21 -8 0
-30 -4 -17 -22 -8 -21 -26 -2 -3 -16 0
-8 -21 -26 -30 -2 -3 -4 -16 -17 -22 0
-30 -26 -21 -8 -22 -17 -4 -16 -3 -2 0
-2 -3 -5 -6 -16 -18 -19 -23 -24 -31 0
-6 -5 -3 -2 -31 -24 -19 -23 -18 -16 0
-2 -19 -18 -16 -6 -5 -3 -31 -24 -23 0
-16 -18 -19 -2 -23 -24 -3 -31 -5 -6 0
-16 -3 -24 -23 -2 -19 -18 -6 -5 -31 0
-23 -24 -3 -16 -31 -5 -18 -6 -19 -2 0
-23 -18 -5 -31 -16 -3 -24 -2 -19 -6 0
-31 -5 -18 -23 -6 -19 -24 -2 -3 -16 0
-6 -19 -24 -31 -2 -3 -5 -16 -18 -23 0
-31 -24 -19 -6 -23 -18 -5 -16 -3 -2 0
-2 -3 -5 -7 -16 -18 -20 -23 -25 -32 0
-7 -5 -3 -2 -32 -25 -20 -23 -18 -16 0
-2 -20 -18 -16 -7 -5 -3 -32 -25 -23 0
-16 -18 -20 -2 -23 -25 -3 -32 -5 -7 0
-16 -3 -25 -23 -2 -20 -18 -7 -5 -32 0
-23 -25 -3 -16 -32 -5 -18 -7 -20 -2 0
-23 -18 -5 -32 -16 -3 -25 -2 -20 -7 0
-32 -5 -18 -23 -7 -20 -25 -2 -3 -16 0
-7 -20 -25 -32 -2 -3 -5 -16 -18 -23 0
-32 -25 -20 -7 -23 -18 -5 -16 -3 -2 0
-2 -3 -5 -8 -16 -18 -21 -23 -26 -33 0
-8 -5 -3 -2 -33 -26 -21 -23 -18 -16 0
-2 -21 -18 -16 -8 -5 -3 -33 -26 -23 0
-16 -18 -21 -2 -23 -26 -3 -33 -5 -8 0
-16 -3 -26 -23 -2 -21 -18 -8 -5 -33 0
-23 -26 -3 -16 -33 -5 -18 -8 -21 -2 0
-23 -18 -5 -33 -16 -3 -26 -2 -21 -8 0
-33 -5 -18 -23 -8 -21 -26 -2 -3 -16 0
-8 -21 -26 -33 -2 -3 -5 -16 -18 -23 0
-33 -26 -21 -8 -23 -18 -5 -16 -3 -2 0
-2 -3 -6 -7 -16 -19 -20 -24 -25 -34 0
-7 -6 -3 -2 -34 -25 -20 -24 -19 -16 0
-2 -20 -19 -16 -7 -6 -3 -34 -25 -24 0
-16 -19 -20 -2 -24 -25 -3 -34 -6 -7 0
-16 -3 -25 -24 -2 -20 -19 -7 -6 -34 0
-24 -25 -3 -16 -34 -6 -19 -7 -20 -2 0
-24 -19 -6 -34 -16 -3 -25 -2 -20 -7 0
-34 -6 -19 -24 -7 -20 -25 -2 -3 -16 0
-7 -20 -25 -34 -2 -3 -6 -16 -19 -24 0
-34 -25 -20 -7 -24 -19 -6 -16 -3 -2 0
-2 -3 -6 -8 -16 -19 -21 -24 -26 -35 0
-8 -6 -3 -2 -35 -26 -21 -24 -19 -16 0
-2 -21 -19 -16 -8 -6 -3 -35 -26 -24 0
-16 -19 -21 -2 -24 -26 -3 -35 -6 -8 0
-16 -3 -26 -24 -2 -21 -19 -8 -6 -35 0
-24 -26 -3 -16 -35 -6 -19 -8 -21 -2 0
-24 -19 -6 -35 -16 -3 -26 -2 -21 -8 0
-35 -6 -19 -24 -8 -21 -26 -2 -3 -16 0
-8 -21 -26 -35 -2 -3 -6 -16 -19 -24 0
-35 -26 -21 -8 -24 -19 -6 -16 -3 -2 0
-2 -3 -7 -8 -16 -20 -21 -25 -26 -36 0
-8 -7 -3 -2 -36 -26 -21 -25 -20 -16 0
-2 -21 -20 -16 -8 -7 -3 -36 -26 -25 0
-16 -20 -21 -2 -25 -26 -3 -36 -7 -8 0
-16 -3 -26 -25 -2 -21 -20 -8 -7 -36 0
-25 -26 -3 -16 -36 -7 -20 -8 -21 -2 0
-25 -20 -7 -36 -16 -3 -26 -2 -21 -8 0
-36 -7 -20 -25 -8 -21 -26 -2 -3 -16 0
-8 -21 -26 -36 -2 -3 -7 -16 -20 -25 0
-36 -26 -21 -8 -25 -20 -7 -16 -3 -2 0
-2 -4 -5 -6 -17 -18 -19 -27 -28 -31 0
-6 -5 -4 -2 -31 -28 -19 -27 -18 -17 0
-2 -19 -18 -17 -6 -5 -4 -31 -28 -27 0
-17 -18 -19 -2 -27 -28 -4 -31 -5 -6 0
-17 -4 -28 -27 -2 -19 -18 -6 -5 -31 0
-27 -28 -4 -17 -31 -5 -18 -6 -19 -2 0
-27 -18 -5 -31 -17 -4 -28 -2 -19 -6 0
-31 -5 -18 -27 -6 -19 -28 -2 -4 -17 0
-6 -19 -28 -31 -2 -4 -5 -17 -18 -27 0
-31 -28 -19 -6 -27 -18 -5 -17 -4 -2 0
-2 -4 -5 -7 -17 -18 -20 -27 -29 -32 0
-7 -5 -4 -2 -32 -29 -20 -27 -18 -17 0
-2 -20 -18 -17 -7 -5 -4 -32 -29 -27 0
-17 -18 -20 -2 -27 -29 -4 -32 -5 -7 0
-17 -4 -29 -27 -2 -20 -18 -7 -5 -32 0
-27 -29 -4 -17 -32 -5 -18 -7 -20 -2 0
-27 -18 -5 -32 -17 -4 -29 -2 -20 -7 0
-32 -5 -18 -27 -7 -20 -29 -2 -4 -17 0
-7 -20 -29 -32 -2 -4 -5 -17 -18 -27 0
-32 -29 -20 -7 -27 -18 -5 -17 -4 -2 0
-2 -4 -5 -8 -17 -18 -21 -27 -30 -33 0
-8 -5 -4 -2 -33 -30 -21 -27 -18 -17 0
-2 -21 -18 -17 -8 -5 -4 -33 -30 -27 0
-17 -18 -21 -2 -27 -30 -4 -33 -5 -8 0
-17 -4 -30 -27 -2 -21 -18 -8 -5 -33 0
-27 -30 -4 -17 -33 -5 -18 -8 -21 -2 0
-27 -18 -5 -33 -17 -4 -30 -2 -21 -8 0
-33 -5 -18 -27 -8 -21 -30 -2 -4 -17 0
-8 -21 -30 -33 -2 -4 -5 -17 -18 -27 0
-33 -30 -21 -8 -27 -18 -5 -17 -4 -2 0
-2 -4 -6 -7 -17 -19 -20 -28 -29 -34 0
-7 -6 -4 -2 -34 -29 -20 -28 -19 -17 0
-2 -20 -19 -17 -7 -6 -4 -34 -29 -28 0
-17 -19 -20 -2 -28 -29 -4 -34 -6 -7 0
-17 -4 -29 -28 -2 -20 -19 -7 -6 -34 0
-28 -29 -4 -17 -34 -6 -19 -7 -20 -2 0
-28 -19 -6 -34 -17 -4 -29 -2 -20 -7 0
-34 -6 -19 -28 -7 -20 -29 -2 -4 -17 0
-7 -20 -29 -34 -2 -4 -6 -17 -19 -28 0
-34 -29 -20 -7 -28 -19 -6 -17 -4 -2 0
-2 -4 -6 -8 -17 -19 -21 -28 -30 -35 0
-8 -6 -4 -2 -35 -30 -21 -28 -19 -17 0
-2 -21 -19 -17 -8 -6 -4 -35 -30 -28 0
-17 -19 -21 -2 -28 -30 -4 -35 -6 -8 0
-17 -4 -30 -28 -2 -21 -19 -8 -6 -35 0
-28 -30 -4 -17 -35 -6 -19 -8 -21 -2 0
-28 -19 -6 -35 -17 -4 -30 -2 -21 -8 0
-35 -6 -19 -28 -8 -21 -30 -2 -4 -17 0
-8 -21 -30 -35 -2 -4 -6 -17 -19 -28 0
-35 -30 -21 -8 -28 -19 -6 -17 -4 -2 0
-2 -4 -7 -8 -17 -20 -21 -29 -30 -36 0
-8 -7 -4 -2 -36 -30 -21 -29 -20 -17 0
-2 -21 -20 -17 -8 -7 -4 -36 -30 -29 0
-17 -20 -21 -2 -29 -30 -4 -36 -7 -8 0
-17 -4 -30 -29 -2 -21 -20 -8 -7 -36 0
-29 -30 -4 -17 -36 -7 -20 -8 -21 -2 0
-29 -20 -7 -36 -17 -4 -30 -2 -21 -8 0
-36 -7 -20 -29 -8 -21 -30 -2 -4 -17 0
-8 -21 -30 -36 -2 -4 -7 -17 -20 -29 0
-36 -30 -21 -8 -29 -20 -7 -17 -4 -2 0
-2 -5 -6 -7 -18 -19 -20 -31 -32 -34 0
-7 -6 -5 -2 -34 -32 -20 -31 -19 -18 0
-2 -20 -19 -18 -7 -6 -5 -34 -32 -31 0
-18 -19 -20 -2 -31 -32 -5 -34 -6 -7 0
-18 -5 -32 -31 -2 -20 -19 -7 -6 -34 0
-31 -32 -5 -18 -34 -6 -19 -7 -20 -2 0
-31 -19 -6 -34 -18 -5 -32 -2 -20 -7 0
-34 -6 -19 -31 -7 -20 -32 -2 -5 -18 0
-7 -20 -32 -34 -2 -5 -6 -18 -19 -31 0
-34 -32 -20 -7 -31 -19 -6 -18 -5 -2 0
-2 -5 -6 -8 -18 -19 -21 -31 -33 -35 0
-8 -6 -5 -2 -35 -33 -21 -31 -19 -18 0
-2 -21 -19 -18 -8 -6 -5 -35 -33 -31 0
-18 -19 -21 -2 -31 -33 -5 -35 -6 -8 0
-18 -5 -33 -31 -2 -21 -19 -8 -6 -35 0
-31 -33 -5 -18 -35 -6 -19 -8 -21 -2 0
-31 -19 -6 -35 -18 -5 -33 -2 -21 -8 0
-35 -6 -19 -31 -8 -21 -33 -2 -5 -18 0
-8 -21 -33 -35 -2 -5 -6 -18 -19 -31 0
-35 -33 -21 -8 -31 -19 -6 -18 -5 -2 0
-2 -5 -7 -8 -18 -20 -21 -32 -33 -36 0
-8 -7 -5 -2 -36 -33 -21 -32 -20 -18 0
-2 -21 -20 -18 -8 -7 -5 -36 -33 -32 0
-18 -20 -21 -2 -32 -33 -5 -36 -7 -8 0
-18 -5 -33 -32 -2 -21 -20 -8 -7 -36 0
-32 -33 -5 -18 -36 -7 -20 -8 -21 -2 0
-32 -20 -7 -36 -18 -5 -33 -2 -21 -8 0
-36 -7 -20 -32 -8 -21 -33 -2 -5 -18 0
-8 -21 -33 -36 -2 -5 -7 -18 -20 -32 0
-36 -33 -21 -8 -32 -20 -7 -18 -5 -2 0
-2 -6 -7 -8 -19 -20 -21 -34 -35 -36 0
-8 -7 -6 -2 -36 -35 -21 -34 -20 -19 0
-2 -21 -20 -19 -8 -7 -6 -36 -35 -34 0
-19 -20 -21 -2 -34 -35 -6 -36 -7 -8 0
-19 -6 -35 -34 -2 -21 -20 -8 -7 -36 0
-34 -35 -6 -19 -36 -7 -20 -8 -21 -2 0
-34 -20 -7 -36 -19 -6 -35 -2 -21 -8 0
-36 -7 -20 -34 -8 -21 -35 -2 -6 -19 0
-8 -21 -35 -36 -2 -6 -7 -19 -20 -34 0
-36 -35 -21 -8 -34 -20 -7 -19 -6 -2 0
-3 -4 -5 -6 -22 -23 -24 -27 -28 -31 0
-6 -5 -4 -3 -31 -28 -24 -27 -23 -22 0
-3 -24 -23 -22 -6 -5 -4 -31 -28 -27 0
-22 -23 -24 -3 -27 -28 -4 -31 -5 -6 0
-22 -4 -28 -27 -3 -24 -23 -6 -5 -31 0
-27 -28 -4 -22 -31 -5 -23 -6 -24 -3 0
-27 -23 -5 -31 -22 -4 -28 -3 -24 -6 0
-31 -5 -23 -27 -6 -24 -28 -3 -4 -22 0
-6 -24 -28 -31 -3 -4 -5 -22 -23 -27 0
-31 -28 -24 -6 -27 -23 -5 -22 -4 -3 0
-3 -4 -5 -7 -22 -23 -25 -27 -29 -32 0
-7 -5 -4 -3 -32 -29 -25 -27 -23 -22 0
-3 -25 -23 -22 -7 -5 -4 -32 -29 -27 0
-22 -23 -25 -3 -27 -29 -4 -32 -5 -7 0
-22 -4 -29 -27 -3 -25 -23 -7 -5 -32 0
-27 -29 -4 -22 -32 -5 -23 -7 -25 -3 0
-27 -23 -5 -32 -22 -4 -29 -3 -25 -7 0
-32 -5 -23 -27 -7 -25 -29 -3 -4 -22 0
-7 -25 -29 -32 -3 -4 -5 -22 -23 -27 0
-32 -29 -25 -7 -27 -23 -5 -22 -4 -3 0
-3 -4 -5 -8 -22 -23 -26 -27 -30 -33 0
-8 -5 -4 -3 -33 -30 -26 -27 -23 -22 0
-3 -26 -23 -22 -8 -5 -4 -33 -30 -27 0
-22 -23 -26 -3 -27 -30 -4 -33 -5 -8 0
-22 -4 -30 -27 -3 -26 -23 -8 -5 -33 0
-27 -30 -4 -22 -33 -5 -23 -8 -26 -3 0
-27 -23 -5 -33 -22 -4 -30 -3 -26 -8 0
-33 -5 -23 -27 -8 -26 -30 -3 -4 -22 0
-8 -26 -30 -33 -3 -4 -5 -22 -23 -27 0
-33 -30 -26 -8 -27 -23 -5 -22 -4 -3 0
-3 -4 -6 -7 -22 -24 -25 -28 -29 -34 0
-7 -6 -4 -3 -34 -29 -25 -28 -24 -22 0
-3 -25 -24 -22 -7 -6 -4 -34 -29 -28 0
-22 -24 -25 -3 -28 -29 -4 -34 -6 -7 0
-22 -4 -29 -28 -3 -25 -24 -7 -6 -34 0
-28 -29 -4 -22 -34 -6 -24 -7 -25 -3 0
-28 -24 -6 -34 -22 -4 -29 -3 -25 -7 0
-34 -6 -24 -28 -7 -25 -29 -3 -4 -22 0
-7 -25 -29 -34 -3 -4 -6 -22 -24 -28 0
-34 -29 -25 -7 -28 -24 -6 -22 -4 -3 0
-3 -4 -6 -8 -22 -24 -26 -28 -30 -35 0
-8 -6 -4 -3 -35 -30 -26 -28 -24 -22 0
-3 -26 -24 -22 -8 -6 -4 -35 -30 -28 0
-22 -24 -26 -3 -28 -30 -4 -35 -6 -8 0
-22 -4 -30 -28 -3 -26 -24 -8 -6 -35 0
-28 -30 -4 -22 -35 -6 -24 -8 -26 -3 0
-28 -24 -6 -35 -22 -4 -30 -3 -26 -8 0
-35 -6 -24 -28 -8 -26 -30 -3 -4 -22 0
-8 -26 -30 -35 -3 -4 -6 -22 -24 -28 0
-35 -30 -26 -8 -28 -24 -6 -22 -4 -3 0
-3 -4 -7 -8 -22 -25 -26 -29 -30 -36 0
-8 -7 -4 -3 -36 -30 -26 -29 -25 -22 0
-3 -26 -25 -22 -8 -7 -4 -36 -30 -29 0
-22 -25 -26 -3 -29 -30 -4 -36 -7 -8 0
-22 -4 -30 -29 -3 -26 -25 -8 -7 -36 0
-29 -30 -4 -22 -36 -7 -25 -8 -26 -3 0
-29 -25 -7 -36 -22 -4 -30 -3 -26 -8 0
-36 -7 -25 -29 -8 -26 -30 -3 -4 -22 0
-8 -26 -30 -36 -3 -4 -7 -22 -25 -29 0
-36 -30 -26 -8 -29 -25 -7 -22 -4 -3 0
-3 -5 -6 -7 -23 -24 -25 -31 -32 -34 0
-7 -6 -5 -3 -34 -32 -25 -31 -24 -23 0
-3 -25 -24 -23 -7 -6 -5 -34 -32 -31 0
-23 -24 -25 -3 -31 -32 -5 -34 -6 -7 0
-23 -5 -32 -31 -3 -25 -24 -7 -6 -34 0
-31 -32 -5 -23 -34 -6 -24 -7 -25 -3 0
-31 -24 -6 -34 -23 -5 -32 -3 -25 -7 0
-34 -6 -24 -31 -7 -25 -32 -3 -5 -23 0
-7 -25 -32 -34 -3 -5 -6 -23 -24 -31 0
-34 -32 -25 -7 -31 -24 -6 -23 -5 -3 0
-3 -5 -6 -8 -23 -24 -26 -31 -33 -35 0
-8 -6 -5 -3 -35 -33 -26 -31 -24 -23 0
-3 -26 -24 -23 -8 -6 -5 -35 -33 -31 0
-23 -24 -26 -3 -31 -33 -5 -35 -6 -8 0
-23 -5 -33 -31 -3 -26 -24 -8 -6 -35 0
-31 -33 -5 -23 -35 -6 -24 -8 -26 -3 0
-31 -24 -6 -35 -23 -5 -33 -3 -26 -8 0
-35 -6 -24 -31 -8 -26 -33 -3 -5 -23 0
-8 -26 -33 -35 -3 -5 -6 -23 -24 -31 0
-35 -33 -26 -8 -31 -24 -6 -23 -5 -3 0
-3 -5 -7 -8 -23 -25 -26 -32 -33 -36 0
-8 -7 -5 -3 -36 -33 -26 -32 -25 -23 0
-3 -26 -25 -23 -8 -7 -5 -36 -33 -32 0
-23 -25 -26 -3 -32 -33 -5 -36 -7 -8 0
-23 -5 -33 -32 -3 -26 -25 -8 -7 -36 0
-32 -33 -5 -23 -36 -7 -25 -8 -26 -3 0
-32 -25 -7 -36 -23 -5 -33 -3 -26 -8 0
-36 -7 -25 -32 -8 -26 -33 -3 -5 -23 0
-8 -26 -33 -36 -3 -5 -7 -23 -25 -32 0
-36 -33 -26 -8 -32 -25 -7 -23 -5 -3 0
-3 -6 -7 -8 -24 -25 -26 -34 -35 -36 0
-8 -7 -6 -3 -36 -35 -26 -34 -25 -24 0
-3 -26 -25 -24 -8 -7 -6 -36 -35 -34 0
-24 -25 -26 -3 -34 -35 -6 -36 -7 -8 0
-24 -6 -35 -34 -3 -26 -25 -8 -7 -36 0
-34 -35 -6 -24 -36 -7 -25 -8 -26 -3 0
-34 -25 -7 -36 -24 -6 -35 -3 -26 -8 0
-36 -7 -25 -34 -8 -26 -35 -3 -6 -24 0
-8 -26 -35 -36 -3 -6 -7 -24 -25 -34 0
-36 -35 -26 -8 -34 -25 -7 -24 -6 -3 0
-4 -5 -6 -7 -27 -28 -29 -31 -32 -34 0
-7 -6 -5 -4 -34 -32 -29 -31 -28 -27 0
-4 -29 -28 -27 -7 -6 -5 -34 -32 -31 0
-27 -28 -29 -4 -31 -32 -5 -34 -6 -7 0
-27 -5 -32 -31 -4 -29 -28 -7 -6 -34 0
-31 -32 -5 -27 -34 -6 -28 -7 -29 -4 0
-31 -28 -6 -34 -27 -5 -32 -4 -29 -7 0
-34 -6 -28 -31 -7 -29 -32 -4 -5 -27 0
-7 -29 -32 -34 -4 -5 -6 -27 -28 -31 0
-34 -32 -29 -7 -31 -28 -6 -27 -5 -4 0
-4 -5 -6 -8 -27 -28 -30 -31 -33 -35 0
-8 -6 -5 -4 -35 -33 -30 -31 -28 -27 0
-4 -30 -28 -27 -8 -6 -5 -35 -33 -31 0
-27 -28 -30 -4 -31 -33 -5 -35 -6 -8 0
-27 -5 -33 -31 -4 -30 -28 -8 -6 -35 0
-31 -33 -5 -27 -35 -6 -28 -8 -30 -4 0
-31 -28 -6 -35 -27 -5 -33 -4 -30 -8 0
-35 -6 -28 -31 -8 -30 -33 -4 -5 -27 0
-8 -30 -33 -35 -4 -5 -6 -27 -28 -31 0
-35 -33 -30 -8 -31 -28 -6 -27 -5 -4 0
-4 -5 -7 -8 -27 -29 -30 -32 -33 -36 0
-8 -7 -5 -4 -36 -33 -30 -32 -29 -27 0
-4 -30 -29 -27 -8 -7 -5 -36 -33 -32 0
-27 -29 -30 -4 -32 -33 -5 -36 -7 -8 0
-27 -5 -33 -32 -4 -30 -29 -8 -7 -36 0
-32 -33 -5 -27 -36 -7 -29 -8 -30 -4 0
-32 -29 -7 -36 -27 -5 -33 -4 -30 -8 0
-36 -7 -29 -32 -8 -30 -33 -4 -5 -27 0
-8 -30 -33 -36 -4 -5 -7 -27 -29 -32 0
-36 -33 -30 -8 -32 -29 -7 -27 -5 -4 0
-4 -6 -7 -8 -28 -29 -30 -34 -35 -36 0
-8 -7 -6 -4 -36 -35 -30 -34 -29 -28 0
-4 -30 -29 -28 -8 -7 -6 -36 -35 -34 0
-28 -29 -30 -4 -34 -35 -6 -36 -7 -8 0
-28 -6 -35 -34 -4 -30 -29 -8 -7 -36 0
-34 -35 -6 -28 -36 -7 -29 -8 -30 -4 0
-34 -29 -7 -36 -28 -6 -35 -4 -30 -8 0
-36 -7 -29 -34 -8 -30 -35 -4 -6 -28 0
-8 -30 -35 -36 -4 -6 -7 -28 -29 -34 0
-36 -35 -30 -8 -34 -29 -7 -28 -6 -4 0
-5 -6 -7 -8 -31 -32 -33 -34 -35 -36 0
-8 -7 -6 -5 -36 -35 -33 -34 -32 -31 0
-5 -33 -32 -31 -8 -7 -6 -36 -35 -34 0
-31 -32 -33 -5 -34 -35 -6 -36 -7 -8 0
-31 -6 -35 -34 -5 -33 -32 -8 -7 -36 0
-34 -35 -6 -31 -36 -7 -32 -8 -33 -5 0
-34 -32 -7 -36 -31 -6 -35 -5 -33 -8 0
-36 -7 -32 -34 -8 -33 -35 -5 -6 -31 0
-8 -33 -35 -36 -5 -6 -7 -31 -32 -34 0
-36 -35 -33 -8 -34 -32 -7 -31 -6 -5 0
-9 -10 -11 -12 -16 -17 -18 -22 -23 -27 0
-12 -11 -10 -9 -27 -23 -18 -22 -17 -16 0
-9 -18 -17 -16 -12 -11 -10 -27 -23 -22 0
-16 -17 -18 -9 -22 -23 -10 -27 -11 -12 0
-16 -10 -23 -22 -9 -18 -17 -12 -11 -27 0
-22 -23 -10 -16 -27 -11 -17 -12 -18 -9 0
-22 -17 -11 -27 -16 -10 -23 -9 -18 -12 0
-27 -11 -17 -22 -12 -18 -23 -9 -10 -16 0
-12 -18 -23 -27 -9 -10 -11 -16 -17 -22 0
-27 -23 -18 -12 -22 -17 -11 -16 -10 -9 0
-9 -10 -11 -13 -16 -17 -19 -22 -24 -28 0
-13 -11 -10 -9 -28 -24 -19 -22 -17 -16 0
-9 -19 -17 -16 -13 -11 -10 -28 -24 -22 0
-16 -17 -19 -9 -22 -24 -10 -28 -11 -13 0
-16 -10 -24 -22 -9 -19 -17 -13 -11 -28 0
-22 -24 -10 -16 -28 -11 -17 -13 -19 -9 0
-22 -17 -11 -28 -16 -10 -24 -9 -19 -13 0
-28 -11 -17 -22 -13 -19 -24 -9 -10 -16 0
-13 -19 -24 -28 -9 -10 -11 -16 -17 -22 0
-28 -24 -19 -13 -22 -17 -11 -16 -10 -9 0
-9 -10 -11 -14 -16 -17 -20 -22 -25 -29 0
-14 -11 -10 -9 -29 -25 -20 -22 -17 -16 0
-9 -20 -17 -16 -14 -11 -10 -29 -25 -22 0
-16 -17 -20 -9 -22 -25 -10 -29 -11 -14 0
-16 -10 -25 -22 -9 -20 -17 -14 -11 -29 0
-22 -25 -10 -16 -29 -11 -17 -14 -20 -9 0
-22 -17 -11 -29 -16 -10 -25 -9 -20 -14 0
-29 -11 -17 -22 -14 -20 -25 -9 -10 -16 0
-14 -20 -25 -29 -9 -10 -11 -16 -17 -22 0
-29 -25 -20 -14 -22 -17 -11 -16 -10 -9 0
-9 -10 -11 -15 -16 -17 -21 -22 -26 -30 0
-15 -11 -10 -9 -30 -26 -21 -22 -17 -16 0
-9 -21 -17 -16 -15 -11 -10 -30 -26 -22 0
-16 -17 -21 -9 -22 -26 -10 -30 -11 -15 0
-16 -10 -26 -22 -9 -21 -17 -15 -11 -30 0
-22 -26 -10 -16 -30 -11 -17 -15 -21 -9 0
-22 -17 -11 -30 -16 -10 -26 -9 -21 -15 0
-30 -11 -17 -22 -15 -21 -26 -9 -10 -16 0
-15 -21 -26 -30 -9 -10 -11 -16 -17 -22 0
-30 -26 -21 -15 -22 -17 -11 -16 -10 -9 0
-9 -10 -12 -13 -16 -18 -19 -23 -24 -31 0
-13 -12 -10 -9 -31 -24 -19 -23 -18 -16 0
-9 -19 -18 -16 -13 -12 -10 -31 -24 -23 0
-16 -18 -19 -9 -23 -24 -10 -31 -12 -13 0
-16 -10 -24 -23 -9 -19 -18 -13 -12 -31 0
-23 -24 -10 -16 -31 -12 -18 -13 -19 -9 0
-23 -18 -12 -31 -16 -10 -24 -9 -19 -13 0
-31 -12 -18 -23 -13 -19 -24 -9 -10 -16 0
-13 -19 -24 -31 -9 -10 -12 -16 -18 -23 0
-31 -24 -19 -13 -23 -18 -12 -16 -10 -9 0
-9 -10 -12 -14 -16 -18 -20 -23 -25 -32 0
-14 -12 -10 -9 -32 -25 -20 -23 -18 -16 0
-9 -20 -18 -16 -14 -12 -10 -32 -25 -23 0
-16 -18 -20 -9 -23 -25 -10 -32 -12 -14 0
-16 -10 -25 -23 -9 -20 -18 -14 -12 -32 0
-23 -25 -10 -16 -32 -12 -18 -14 -20 -9 0
-23 -18 -12 -32 -16 -10 -25 -9 -20 -14 0
-32 -12 -18 -23 -14 -20 -25 -9 -10 -16 0
-14 -20 -25 -32 -9 -10 -12 -16 -18 -23 0
-32 -25 -20 -14 -23 -18 -12 -16 -10 -9 0
-9 -10 -12 -15 -16 -18 -21 -23 -26 -33 0
-15 -12 -10 -9 -33 -26 -21 -23 -18 -16 0
-9 -21 -18 -16 -15 -12 -10 -33 -26 -23 0
-16 -18 -21 -9 -23 -26 -10 -33 -12 -15 0
-16 -10 -26 -23 -9 -21 -18 -15 -12 -33 0
-23 -26 -10 -16 -33 -12 -18 -15 -21 -9 0
-23 -18 -12 -33 -16 -10 -26 -9 -21 -15 0
-33 -12 -18 -23 -15 -21 -26 -9 -10 -16 0
-15 -21 -26 -33 -9 -10 -12 -16 -18 -23 0
-33 -26 -21 -15 -23 -18 -12 -16 -10 -9 0
-9 -10 -13 -14 -16 -19 -20 -24 -25 -34 0
-14 -13 -10 -9 -34 -25 -20 -24 -19 -16 0
-9 -20 -19 -16 -14 -13 -10 -34 -25 -24 0
-16 -19 -20 -9 -24 -25 -10 -34 -13 -14 0
-16 -10 -25 -24 -9 -20 -19 -14 -13 -34 0
-24 -25 -10 -16 -34 -13 -19 -14 -20 -9 0
-24 -19 -13 -34 -16 -10 -25 -9 -20 -14 0
-34 -13 -19 -24 -14 -20 -25 -9 -10 -16 0
-14 -20 -25 -34 -9 -10 -13 -16 -19 -24 0
-34 -25 -20 -14 -24 -19 -13 -16 -10 -9 0
-9 -10 -13 -15 -16 -19 -21 -24 -26 -35 0
-15 -13 -10 -9 -35 -26 -21 -24 -19 -16 0
-9 -21 -19 -16 -15 -13 -10 -35 -26 -24 0
-16 -19 -21 -9 -24 -26 -10 -35 -13 -15 0
-16 -10 -26 -24 -9 -21 -19 -15 -13 -35 0
-24 -26 -10 -16 -35 -13 -19 -15 -21 -9 0
-24 -19 -13 -35 -16 -10 -26 -9 -21 -15 0
-35 -13 -19 -24 -15 -21 -26 -9 -10 -16 0
-15 -21 -26 -35 -9 -10 -13 -16 -19 -24 0
-35 -26 -21 -15 -24 -19 -13 -16 -10 -9 0
-9 -10 -14 -15 -16 -20 -21 -25 -26 -36 0
-15 -14 -10 -9 -36 -26 -21 -25 -20 -16 0
-9 -21 -20 -16 -15 -14 -10 -36 -26 -25 0
-16 -20 -21 -9 -25 -26 -10 -36 -14 -15 0
-16 -10 -26 -25 -9 -21 -20 -15 -14 -36 0
-25 -26 -10 -16 -36 -14 -20 -15 -21 -9 0
-25 -20 -14 -36 -16 -10 -26 -9 -21 -15 0
-36 -14 -20 -25 -15 -21 -26 -9 -10 -16 0
-15 -21 -26 -36 -9 -10 -14 -16 -20 -25 0
-36 -26 -21 -15 -25 -20 -14 -16 -10 -9 0
-9 -11 -12 -13 -17 -18 -19 -27 -28 -31 0
-13 -12 -11 -9 -31 -28 -19 -27 -18 -17 0
-9 -19 -18 -17 -13 -12 -11 -31 -28 -27 0
-17 -18 -19 -9 -27 -28 -11 -31 -12 -13 0
-17 -11 -28 -27 -9 -19 -18 -13 -12 -31 0
-27 -28 -11 -17 -31 -12 -18 -13 -19 -9 0
-27 -18 -12 -31 -17 -11 -28 -9 -19 -13 0
-31 -12 -18 -27 -13 -19 -28 -9 -11 -17 0
-13 -19 -28 -31 -9 -11 -12 -17 -18 -27 0
-31 -28 -19 -13 -27 -18 -12 -17 -11 -9 0
-9 -11 -12 -14 -17 -18 -20 -27 -29 -32 0
-14 -12 -11 -9 -32 -29 -20 -27 -18 -17 0
-9 -20 -18 -17 -14 -12 -11 -32 -29 -27 0
-17 -18 -20 -9 -27 -29 -11 -32 -12 -14 0
-17 -11 -29 -27 -9 -20 -18 -14 -12 -32 0
-27 -29 -11 -17 -32 -12 -18 -14 -20 -9 0
-27 -18 -12 -32 -17 -11 -29 -9 -20 -14 0
-32 -12 -18 -27 -14 -20 -29 -9 -11 -17 0
-14 -20 -29 -32 -9 -11 -12 -17 -18 -27 0
-32 -29 -20 -14 -27 -18 -12 -17 -11 -9 0
-9 -11 -12 -15 -17 -18 -21 -27 -30 -33 0
-15 -12 -11 -9 -33 -30 -21 -27 -18 -17 0
-9 -21 -18 -17 -15 -12 -11 -33 -30 -27 0
-17 -18 -21 -9 -27 -30 -11 -33 -12 -15 0
-17 -11 -30 -27 -9 -21 -18 -15 -12 -33 0
-27 -30 -11 -17 -33 -12 -18 -15 -21 -9 0
-27 -18 -12 -33 -17 -11 -30 -9 -21 -15 0
-33 -12 -18 -27 -15 -21 -30 -9 -11 -17 0
-15 -21 -30 -33 -9 -11 -12 -17 -18 -27 0
-33 -30 -21 -15 -27 -18 -12 -17 -11 -9 0
-9 -11 -13 -14 -17 -19 -20 -28 -29 -34 0
-14 -13 -11 -9 -34 -29 -20 -28 -19 -17 0
-9 -20 -19 -17 -14 -13 -11 -34 -29 -28 0
-17 -19 -20 -9 -28 -29 -11 -34 -13 -14 0
-17 -11 -29 -28 -9 -20 -19 -14 -13 -34 0
-28 -29 -11 -17 -34 -13 -19 -14 -20 -9 0
-28 -19 -13 -34 -17 -11 -29 -9 -20 -14 0
-34 -13 -19 -28 -14 -20 -29 -9 -11 -17 0
-14 -20 -29 -34 -9 -11 -13 -17 -19 -28 0
-34 -29 -20 -14 -28 -19 -13 -17 -11 -9 0
-9 -11 -13 -15 -17 -19 -21 -28 -30 -35 0
-15 -13 -11 -9 -35 -30 -21 -28 -19 -17 0
-9 -21 -19 -17 -15 -13 -11 -35 -30 -28 0
-17 -19 -21 -9 -28 -30 -11 -35 -13 -15 0
-17 -11 -30 -28 -9 -21 -19 -15 -13 -35 0
-28 -30 -11 -17 -35 -13 -19 -15 -21 -9 0
-28 -19 -13 -35 -17 -11 -30 -9 -21 -15 0
-35 -13 -19 -28 -15 -21 -30 -9 -11 -17 0
-15 -21 -30 -35 -9 -11 -13 -17 -19 -28 0
-35 -30 -21 -15 -28 -19 -13 -17 -11 -9 0
-9 -11 -14 -15 -17 -20 -21 -29 -30 -36 0
-15 -14 -11 -9 -36 -30 -21 -29 -20 -17 0
-9 -21 -20 -17 -15 -14 -11 -36 -30 -29 0
-17 -20 -21 -9 -29 -30 -11 -36 -14 -15 0
-17 -11 -30 -29 -9 -21 -20 -15 -14 -36 0
-29 -30 -11 -17 -36 -14 -20 -15 -21 -9 0
-29 -20 -14 -36 -17 -11 -30 -9 -21 -15 0
-36 -14 -20 -29 -15 -21 -30 -9 -11 -17 0
-15 -21 -30 -36 -9 -11 -14 -17 -20 -29 0
-36 -30 -21 -15 -29 -20 -14 -17 -11 -9 0
-9 -12 -13 -14 -18 -19 -20 -31 -32 -34 0
-14 -13 -12 -9 -34 -32 -20 -31 -19 -18 0
-9 -20 -19 -18 -14 -13 -12 -34 -32 -31 0
-18 -19 -20 -9 -31 -32 -12 -34 -13 -14 0
-18 -12 -32 -31 -9 -20 -19 -14 -13 -34 0
-31 -32 -12 -18 -34 -13 -19 -14 -20 -9 0
-31 -19 -13 -34 -18 -12 -32 -9 -20 -14 0
-34 -13 -19 -31 -14 -20 -32 -9 -12 -18 0
-14 -20 -32 -34 -9 -12 -13 -18 -19 -31 0
-34 -32 -20 -14 -31 -19 -13 -18 -12 -9 0
-9 -12 -13 -15 -18 -19 -21 -31 -33 -35 0
-15 -13 -12 -9 -35 -33 -21 -31 -19 -18 0
-9 -21 -19 -18 -15 -13 -12 -35 -33 -31 0
-18 -19 -21 -9 -31 -33 -12 -35 -13 -15 0
-18 -12 -33 -31 -9 -21 -19 -15 -13 -35 0
-31 -33 -12 -18 -35 -13 -19 -15 -21 -9 0
-31 -19 -13 -35 -18 -12 -33 -9 -21 -15 0
-35 -13 -19 -31 -15 -21 -33 -9 -12 -18 0
-15 -21 -33 -35 -9 -12 -13 -18 -19 -31 0
-35 -33 -21 -15 -31 -19 -13 -18 -12 -9 0
-9 -12 -14 -15 -18 -20 -21 -32 -33 -36 0
-15 -14 -12 -9 -36 -33 -21 -32 -20 -18 0
-9 -21 -20 -18 -15 -14 -12 -36 -33 -32 0
-18 -20 -21 -9 -32 -33 -12 -36 -14 -15 0
-18 -12 -33 -32 -9 -21 -20 -15 -14 -36 0
-32 -33 -12 -18 -36 -14 -20 -15 -21 -9 0
-32 -20 -14 -36 -18 -12 -33 -9 -21 -15 0
-36 -14 -20 -32 -15 -21 -33 -9 -12 -18 0
-15 -21 -33 -36 -9 -12 -14 -18 -20 -32 0
-36 -33 -21 -15 -32 -20 -14 -18 -12 -9 0
-9 -13 -14 -15 -19 -20 -21 -34 -35 -36 0
-15 -14 -13 -9 -36 -35 -21 -34 -20 -19 0
-9 -21 -20 -19 -15 -14 -13 -36 -35 -34 0
-19 -20 -21 -9 -34 -35 -13 -36 -14 -15 0
-19 -13 -35 -34 -9 -21 -20 -15 -14 -36 0
-34 -35 -13 -19 -36 -14 -20 -15 -21 -9 0
-34 -20 -14 -36 -19 -13 -35 -9 -21 -15 0
-36 -14 -20 -34 -15 -21 -35 -9 -13 -19 0
-15 -21 -35 -36 -9 -13 -14 -19 -20 -34 0
-36 -35 -21 -15 -34 -20 -14 -19 -13 -9 0
-10 -11 -12 -13 -22 -23 -24 -27 -28 -31 0
-13 -12 -11 -10 -31 -28 -24 -27 -23 -22 0
-10 -24 -23 -22 -13 -12 -11 -31 -28 -27 0
-22 -23 -24 -10 -27 -28 -11 -31 -12 -13 0
-22 -11 -28 -27 -10 -24 -23 -13 -12 -31 0
-27 -28 -11 -22 -31 -12 -23 -13 -24 -10 0
-27 -23 -12 -31 -22 -11 -28 -10 -24 -13 0
-31 -12 -23 -27 -13 -24 -28 -10 -11 -22 0
-13 -24 -28 -31 -10 -11 -12 -22 -23 -27 0
-31 -28 -24 -13 -27 -23 -12 -22 -11 -10 0
-10 -11 -12 -14 -22 -23 -25 -27 -29 -32 0
-14 -12 -11 -10 -32 -29 -25 -27 -23 -22 0
-10 -25 -23 -22 -14 -12 -11 -32 -29 -27 0
-22 -23 -25 -10 -27 -29 -11 -32 -12 -14 0
-22 -11 -29 -27 -10 -25 -23 -14 -12 -32 0
-27 -29 -11 -22 -32 -12 -23 -14 -25 -10 0
-27 -23 -12 -32 -22 -11 -29 -10 -25 -14 0
-32 -12 -23 -27 -14 -25 -29 -10 -11 -22 0
-14 -25 -29 -32 -10 -11 -12 -22 -23 -27 0
-32 -29 -25 -14 -27 -23 -12 -22 -11 -10 0
-10 -11 -12 -15 -22 -23 -26 -27 -30 -33 0
-15 -12 -11 -10 -33 -30 -26 -27 -23 -22 0
-10 -26 -23 -22 -15 -12 -11 -33 -30 -27 0
-22 -23 -26 -10 -27 -30 -11 -33 -12 -15 0
-22 -11 -30 -27 -10 -26 -23 -15 -12 -33 0
-27 -30 -11 -22 -33 -12 -23 -15 -26 -10 0
-27 -23 -12 -33 -22 -11 -30 -10 -26 -15 0
-33 -12 -23 -27 -15 -26 -30 -10 -11 -22 0
-15 -26 -30 -33 -10 -11 -12 -22 -23 -27 0
-33 -30 -26 -15 -27 -23 -12 -22 -11 -10 0
-10 -11 -13 -14 -22 -24 -25 -28 -29 -34 0
-14 -13 -11 -10 -34 -29 -25 -28 -24 -22 0
-10 -25 -24 -22 -14 -13 -11 -34 -29 -28 0
-22 -24 -25 -10 -28 -29 -11 -34 -13 -14 0
-22 -11 -29 -28 -10 -25 -24 -14 -13 -34 0
-28 -29 -11 -22 -34 -13 -24 -14 -25 -10 0
-28 -24 -13 -34 -22 -11 -29 -10 -25 -14 0
-34 -13 -24 -28 -14 -25 -29 -10 -11 -22 0
-14 -25 -29 -34 -10 -11 -13 -22 -24 -28 0
-34 -29 -25 -14 -28 -24 -13 -22 -11 -10 0
-10 -11 -13 -15 -22 -24 -26 -28 -30 -35 0
-15 -13 -11 -10 -35 -30 -26 -28 -24 -22 0
-10 -26 -24 -22 -15 -13 -11 -35 -30 -28 0
-22 -24 -26 -10 -28 -30 -11 -35 -13 -15 0
-22 -11 -30 -28 -10 -26 -24 -15 -13 -35 0
-28 -30 -11 -22 -35 -13 -24 -15 -26 -10 0
-28 -24 -13 -35 -22 -11 -30 -10 -26 -15 0
-35 -13 -24 -28 -15 -26 -30 -10 -11 -22 0
-15 -26 -30 -35 -10 -11 -13 -22 -24 -28 0
-35 -30 -26 -15 -28 -24 -13 -22 -11 -10 0
-10 -11 -14 -15 -22 -25 -26 -29 -30 -36 0
-15 -14 -11 -10 -36 -30 -26 -29 -25 -22 0
-10 -26 -25 -22 -15 -14 -11 -36 -30 -29 0
-22 -25 -26 -10 -29 -30 -11 -36 -14 -15 0
-22 -11 -30 -29 -10 -26 -25 -15 -14 -36 0
-29 -30 -11 -22 -36 -14 -25 -15 -26 -10 0
-29 -25 -14 -36 -22 -11 -30 -10 -26 -15 0
-36 -14 -25 -29 -15 -26 -30 -10 -11 -22 0
-15 -26 -30 -36 -10 -11 -14 -22 -25 -29 0
-36 -30 -26 -15 -29 -25 -14 -22 -11 -10 0
-10 -12 -13 -14 -23 -24 -25 -31 -32 -34 0
-14 -13 -12 -10 -34 -32 -25 -31 -24 -23 0
-10 -25 -24 -23 -14 -13 -12 -34 -32 -31 0
-23 -24 -25 -10 -31 -32 -12 -34 -13 -14 0
-23 -12 -32 -31 -10 -25 -24 -14 -13 -34 0
-31 -32 -12 -23 -34 -13 -24 -14 -25 -10 0
-31 -24 -13 -34 -23 -12 -32 -10 -25 -14 0
-34 -13 -24 -31 -14 -25 -32 -10 -12 -23 0
-14 -25 -32 -34 -10 -12 -13 -23 -24 -31 0
-34 -32 -25 -14 -31 -24 -13 -23 -12 -10 0
-10 -12 -13 -15 -23 -24 -26 -31 -33 -35 0
-15 -13 -12 -10 -35 -33 -26 -31 -24 -23 0
-10 -26 -24 -23 -15 -13 -12 -35 -33 -31 0
-23 -24 -26 -10 -31 -33 -12 -35 -13 -15 0
-23 -12 -33 -31 -10 -26 -24 -15 -13 -35 0
-31 -33 -12 -23 -35 -13 -24 -15 -26 -10 0
-31 -24 -13 -35 -23 -12 -33 -10 -26 -15 0
-35 -13 -24 -31 -15 -26 -33 -10 -12 -23 0
-15 -26 -33 -35 -10 -12 -13 -23 -24 -31 0
-35 -33 -26 -15 -31 -24 -13 -23 -12 -10 0
-10 -12 -14 -15 -23 -25 -26 -32 -33 -36 0
-15 -14 -12 -10 -36 -33 -26 -32 -25 -23 0
-10 -26 -25 -23 -15 -14 -12 -36 -33 -32 0
-23 -25 -26 -10 -32 -33 -12 -36 -14 -15 0
-23 -12 -33 -32 -10 -26 -25 -15 -14 -36 0
-32 -33 -12 -23 -36 -14 -25 -15 -26 -10 0
-32 -25 -14 -36 -23 -12 -33 -10 -26 -15 0
-36 -14 -25 -32 -15 -26 -33 -10 -12 -23 0
-15 -26 -33 -36 -10 -12 -14 -23 -25 -32 0
-36 -33 -26 -15 -32 -25 -14 -23 -12 -10 0
-10 -13 -14 -15 -24 -25 -26 -34 -35 -36 0
-15 -14 -13 -10 -36 -35 -26 -34 -25 -24 0
-10 -26 -25 -24 -15 -14 -13 -36 -35 -34 0
-24 -25 -26 -10 -34 -35 -13 -36 -14 -15 0
-24 -13 -35 -34 -10 -26 -25 -15 -14 -36 0
-34 -35 -13 -24 -36 -14 -25 -15 -26 -10 0
-34 -25 -14 -36 -24 -13 -35 -10 -26 -15 0
-36 -14 -25 -34 -15 -26 -35 -10 -13 -24 0
-15 -26 -35 -36 -10 -13 -14 -24 -25 -34 0
-36 -35 -26 -15 -34 -25 -14 -24 -13 -10 0
-11 -12 -13 -14 -27 -28 -29 -31 -32 -34 0
-14 -13 -12 -11 -34 -32 -29 -31 -28 -27 0
-11 -29 -28 -27 -14 -13 -12 -34 -32 -31 0
-27 -28 -29 -11 -31 -32 -12 -34 -13 -14 0
-27 -12 -32 -31 -11 -29 -28 -14 -13 -34 0
-31 -32 -12 -27 -34 -13 -28 -14 -29 -11 0
-31 -28 -13 -34 -27 -12 -32 -11 -29 -14 0
-34 -13 -28 -31 -14 -29 -32 -11 -12 -27 0
-14 -29 -32 -34 -11 -12 -13 -27 -28 -31 0
-34 -32 -29 -14 -31 -28 -13 -27 -12 -11 0
-11 -12 -13 -15 -27 -28 -30 -31 -33 -35 0
-15 -13 -12 -11 -35 -33 -30 -31 -28 -27 0
-11 -30 -28 -27 -15 -13 -12 -35 -33 -31 0
-27 -28 -30 -11 -31 -33 -12 -35 -13 -15 0
-27 -12 -33 -31 -11 -30 -28 -15 -13 -35 0
-31 -33 -12 -27 -35 -13 -28 -15 -30 -11 0
-31 -28 -13 -35 -27 -12 -33 -11 -30 -15 0
-35 -13 -28 -31 -15 -30 -33 -11 -12 -27 0
-15 -30 -33 -35 -11 -12 -13 -27 -28 -31 0
-35 -33 -30 -15 -31 -28 -13 -27 -12 -11 0
-11 -12 -14 -15 -27 -29 -30 -32 -33 -36 0
-15 -14 -12 -11 -36 -33 -30 -32 -29 -27 0
-11 -30 -29 -27 -15 -14 -12 -36 -33 -32 0
-27 -29 -30 -11 -32 -33 -12 -36 -14 -15 0
-27 -12 -33 -32 -11 -30 -29 -15 -14 -36 0
-32 -33 -12 -27 -36 -14 -29 -15 -30 -11 0
-32 -29 -14 -36 -27 -12 -33 -11 -30 -15 0
-36 -14 -29 -32 -15 -30 -33 -11 -12 -27 0
-15 -30 -33 -36 -11 -12 -14 -27 -29 -32 0
-36 -33 -30 -15 -32 -29 -14 -27 -12 -11 0
-11 -13 -14 -15 -28 -29 -30 -34 -35 -36 0
-15 -14 -13 -11 -36 -35 -30 -34 -29 -28 0
-11 -30 -29 -28 -15 -14 -13 -36 -35 -34 0
-28 -29 -30 -11 -34 -35 -13 -36 -14 -15 0
-28 -13 -35 -34 -11 -30 -29 -15 -14 -36 0
-34 -35 -13 -28 -36 -14 -29 -15 -30 -11 0
-34 -29 -14 -36 -28 -13 -35 -11 -30 -15 0
-36 -14 -29 -34 -15 -30 -35 -11 -13 -28 0
-15 -30 -35 -36 -11 -13 -14 -28 -29 -34 0
-36 -35 -30 -15 -34 -29 -14 -28 -13 -11 0
-12 -13 -14 -15 -31 -32 -33 -34 -35 -36 0
-15 -14 -13 -12 -36 -35 -33 -34 -32 -31 0
-12 -33 -32 -31 -15 -14 -13 -36 -35 -34 0
-31 -32 -33 -12 -34 -35 -13 -36 -14 -15 0
-31 -13 -35 -34 -12 -33 -32 -15 -14 -36 0
-34 -35 -13 -31 -36 -14 -32 -15 -33 -12 0
-34 -32 -14 -36 -31 -13 -35 -12 -33 -15 0
-36 -14 -32 -34 -15 -33 -35 -12 -13 -31 0
-15 -33 -35 -36 -12 -13 -14 -31 -32 -34 0
-36 -35 -33 -15 -34 -32 -14 -31 -13 -12 0
-16 -17 -18 -19 -22 -23 -24 -27 -28 -31 0
-19 -18 -17 -16 -31 -28 -24 -27 -23 -22 0
-16 -24 -23 -22 -19 -18 -17 -31 -28 -27 0
-22 -23 -24 -16 -27 -28 -17 -31 -18 -19 0
-22 -17 -28 -27 -16 -24 -23 -19 -18 -31 0
-27 -28 -17 -22 -31 -18 -23 -19 -24 -16 0
-27 -23 -18 -31 -22 -17 -28 -16 -24 -19 0
-31 -18 -23 -27 -19 -24 -28 -16 -17 -22 0
-19 -24 -28 -31 -16 -17 -18 -22 -23 -27 0
-31 -28 -24 -19 -27 -23 -18 -22 -17 -16 0
-16 -17 -18 -20 -22 -23 -25 -27 -29 -32 0
-20 -18 -17 -16 -32 -29 -25 -27 -23 -22 0
-16 -25 -23 -22 -20 -18 -17 -32 -29 -27 0
-22 -23 -25 -16 -27 -29 -17 -32 -18 -20 0
-22 -17 -29 -27 -16 -25 -23 -20 -18 -32 0
-27 -29 -17 -22 -32 -18 -23 -20 -25 -16 0
-27 -23 -18 -32 -22 -17 -29 -16 -25 -20 0
-32 -18 -23 -27 -20 -25 -29 -16 -17 -22 0
-20 -25 -29 -32 -16 -17 -18 -22 -23 -27 0
-32 -29 -25 -20 -27 -23 -18 -22 -17 -16 0
-16 -17 -18 -21 -22 -23 -26 -27 -30 -33 0
-21 -18 -17 -16 -33 -30 -26 -27 -23 -22 0
-16 -26 -23 -22 -21 -18 -17 -33 -30 -27 0
-22 -23 -26 -16 -27 -30 -17 -33 -18 -21 0
-22 -17 -30 -27 -16 -26 -23 -21 -18 -33 0
-27 -30 -17 -22 -33 -18 -23 -21 -26 -16 0
-27 -23 -18 -33 -22 -17 -30 -16 -26 -21 0
-33 -18 -23 -27 -21 -26 -30 -16 -17 -22 0
-21 -26 -30 -33 -16 -17 -18 -22 -23 -27 0
-33 -30 -26 -21 -27 -23 -18 -22 -17 -16 0
-16 -17 -19 -20 -22 -24 -25 -28 -29 -34 0
-20 -19 -17 -16 -34 -29 -25 -28 -24 -22 0
-16 -25 -24 -22 -20 -19 -17 -34 -29 -28 0
-22 -24 -25 -16 -28 -29 -17 -34 -19 -20 0
-22 -17 -29 -28 -16 -25 -24 -20 -19 -34 0
-28 -29 -17 -22 -34 -19 -24 -20 -25 -16 0
-28 -24 -19 -34 -22 -17 -29 -16 -25 -20 0
-34 -19 -24 -28 -20 -25 -29 -16 -17 -22 0
-20 -25 -29 -34 -16 -17 -19 -22 -24 -28 0
-34 -29 -25 -20 -28 -24 -19 -22 -17 -16 0
-16 -17 -19 -21 -22 -24 -26 -28 -30 -35 0
-21 -19 -17 -16 -35 -30 -26 -28 -24 -22 0
-16 -26 -24 -22 -21 -19 -17 -35 -30 -28 0
-22 -24 -26 -16 -28 -30 -17 -35 -19 -21 0
-22 -17 -30 -28 -16 -26 -24 -21 -19 -35 0
-28 -30 -17 -22 -35 -19 -24 -21 -26 -16 0
-28 -24 -19 -35 -22 -17 -30 -16 -26 -21 0
-35 -19 -24 -28 -21 -26 -30 -16 -17 -22 0
-21 -26 -30 -35 -16 -17 -19 -22 -24 -28 0
-35 -30 -26 -21 -28 -24 -19 -22 -17 -16 0
-16 -17 -20 -21 -22 -25 -26 -29 -30 -36 0
-21 -20 -17 -16 -36 -30 -26 -29 -25 -22 0
-16 -26 -25 -22 -21 -20 -17 -36 -30 -29 0
-22 -25 -26 -16 -29 -30 -17 -36 -20 -21 0
-22 -17 -30 -29 -16 -26 -25 -21 -20 -36 0
-29 -30 -17 -22 -36 -20 -25 -21 -26 -16 0
-29 -25 -20 -36 -22 -17 -30 -16 -26 -21 0
-36 -20 -25 -29 -21 -26 -30 -16 -17 -22 0
-21 -26 -30 -36 -16 -17 -20 -22 -25 -29 0
-36 -30 -26 -21 -29 -25 -20 -22 -17 -16 0
-16 -18 -19 -20 -23 -24 -25 -31 -32 -34 0
-20 -19 -18 -16 -34 -32 -25 -31 -24 -23 0
-16 -25 -24 -23 -20 -19 -18 -34 -32 -31 0
-23 -24 -25 -16 -31 -32 -18 -34 -19 -20 0
-23 -18 -32 -31 -16 -25 -24 -20 -19 -34 0
-31 -32 -18 -23 -34 -19 -24 -20 -25 -16 0
-31 -24 -19 -34 -23 -18 -32 -16 -25 -20 0
-34 -19 -24 -31 -20 -25 -32 -16 -18 -23 0
-20 -25 -32 -34 -16 -18 -19 -23 -24 -31 0
-34 -32 -25 -20 -31 -24 -19 -23 -18 -16 0
-16 -18 -19 -21 -23 -24 -26 -31 -33 -35 0
-21 -19 -18 -16 -35 -33 -26 -31 -24 -23 0
-16 -26 -24 -23 -21 -19 -18 -35 -33 -31 0
-23 -24 -26 -16 -31 -33 -18 -35 -19 -21 0
-23 -18 -33 -31 -16 -26 -24 -21 -19 -35 0
-31 -33 -18 -23 -35 -19 -24 -21 -26 -16 0
-31 -24 -19 -35 -23 -18 -33 -16 -26 -21 0
-35 -19 -24 -31 -21 -26 -33 -16 -18 -23 0
-21 -26 -33 -35 -16 -18 -19 -23 -24 -31 0
-35 -33 -26 -21 -31 -24 -19 -23 -18 -16 0
-16 -18 -20 -21 -23 -25 -26 -32 -33 -36 0
-21 -20 -18 -16 -36 -33 -26 -32 -25 -23 0
-16 -26 -25 -23 -21 -20 -18 -36 -33 -32 0
-23 -25 -26 -16 -32 -33 -18 -36 -20 -21 0
-23 -18 -33 -32 -16 -26 -25 -21 -20 -36 0
-32 -33 -18 -23 -36 -20 -25 -21 -26 -16 0
-32 -25 -20 -36 -23 -18 -33 -16 -26 -21 0
-36 -20 -25 -32 -21 -26 -33 -16 -18 -23 0
-21 -26 -33 -36 -16 -18 -20 -23 -25 -32 0
-36 -33 -26 -21 -32 -25 -20 -23 -18 -16 0
-16 -19 -20 -21 -24 -25 -26 -34 -35 -36 0
-21 -20 -19 -16 -36 -35 -26 -34 -25 -24 0
-16 -26 -25 -24 -21 -20 -19 -36 -35 -34 0
-24 -25 -26 -16 -34 -35 -19 -36 -20 -21 0
-24 -19 -35 -34 -16 -26 -25 -21 -20 -36 0
-34 -35 -19 -24 -36 -20 -25 -21 -26 -16 0
-34 -25 -20 -36 -24 -19 -35 -16 -26 -21 0
-36 -20 -25 -34 -21 -26 -35 -16 -19 -24 0
-21 -26 -35 -36 -16 -19 -20 -24 -25 -34 0
-36 -35 -26 -21 -34 -25 -20 -24 -19 -16 0
-17 -18 -19 -20 -27 -28 -29 -31 -32 -34 0
-20 -19 -18 -17 -34 -32 -29 -31 -28 -27 0
-17 -29 -28 -27 -20 -19 -18 -34 -32 -31 0
-27 -28 -29 -17 -31 -32 -18 -34 -19 -20 0
-27 -18 -32 -31 -17 -29 -28 -20 -19 -34 0
-31 -32 -18 -27 -34 -19 -28 -20 -29 -17 0
-31 -28 -19 -34 -27 -18 -32 -17 -29 -20 0
-34 -19 -28 -31 -20 -29 -32 -17 -18 -27 0
-20 -29 -32 -34 -17 -18 -19 -27 -28 -31 0
-34 -32 -29 -20 -31 -28 -19 -27 -18 -17 0
-17 -18 -19 -21 -27 -28 -30 -31 -33 -35 0
-21 -19 -18 -17 -35 -33 -30 -31 -28 -27 0
-17 -30 -28 -27 -21 -19 -18 -35 -33 -31 0
-27 -28 -30 -17 -31 -33 -18 -35 -19 -21 0
-27 -18 -33 -31 -17 -30 -28 -21 -19 -35 0
-31 -33 -18 -27 -35 -19 -28 -21 -30 -17 0
-31 -28 -19 -35 -27 -18 -33 -17 -30 -21 0
-35 -19 -28 -31 -21 -30 -33 -17 -18 -27 0
-21 -30 -33 -35 -17 -18 -19 -27 -28 -31 0
-35 -33 -30 -21 -31 -28 -19 -27 -18 -17 0
-17 -18 -20 -21 -27 -29 -30 -32 -33 -36 0
-21 -20 -18 -17 -36 -33 -30 -32 -29 -27 0
-17 -30 -29 -27 -21 -20 -18 -36 -33 -32 0
-27 -29 -30 -17 -32 -33 -18 -36 -20 -21 0
-27 -18 -33 -32 -17 -30 -29 -21 -20 -36 0
-32 -33 -18 -27 -36 -20 -29 -21 -30 -17 0
-32 -29 -20 -36 -27 -18 -33 -17 -30 -21 0
-36 -20 -29 -32 -21 -30 -33 -17 -18 -27 0
-21 -30 -33 -36 -17 -18 -20 -27 -29 -32 0
-36 -33 -30 -21 -32 -29 -20 -27 -18 -17 0
-17 -19 -20 -21 -28 -29 -30 -34 -35 -36 0
-21 -20 -19 -17 -36 -35 -30 -34 -29 -28 0
-17 -30 -29 -28 -21 -20 -19 -36 -35 -34 0
-28 -29 -30 -17 -34 -35 -19 -36 -20 -21 0
-28 -19 -35 -34 -17 -30 -29 -21 -20 -36 0
-34 -35 -19 -28 -36 -20 -29 -21 -30 -17 0
-34 -29 -20 -36 -28 -19 -35 -17 -30 -21 0
-36 -20 -29 -34 -21 -30 -35 -17 -19 -28 0
-21 -30 -35 -36 -17 -19 -20 -28 -29 -34 0
-36 -35 -30 -21 -34 -29 -20 -28 -19 -17 0
-18 -19 -20 -21 -31 -32 -33 -34 -35 -36 0
-21 -20 -19 -18 -36 -35 -33 -34 -32 -31 0
-18 -33 -32 -31 -21 -20 -19 -36 -35 -34 0
-31 -32 -33 -18 -34 -35 -19 -36 -20 -21 0
-31 -19 -35 -34 -18 -33 -32 -21 -20 -36 0
-34 -35 -19 -31 -36 -20 -32 -21 -33 -18 0
-34 -32 -20 -36 -31 -19 -35 -18 -33 -21 0
-36 -20 -32 -34 -21 -33 -35 -18 -19 -31 0
-21 -33 -35 -36 -18 -19 -20 -31 -32 -34 0
-36 -35 -33 -21 -34 -32 -20 -31 -19 -18 0
-22 -23 -24 -25 -27 -28 -29 -31 -32 -34 0
-25 -24 -23 -22 -34 -32 -29 -31 -28 -27 0
-22 -29 -28 -27 -25 -24 -23 -34 -32 -31 0
-27 -28 -29 -22 -31 -32 -23 -34 -24 -25 0
-27 -23 -32 -31 -22 -29 -28 -25 -24 -34 0
-31 -32 -23 -27 -34 -24 -28 -25 -29 -22 0
-31 -28 -24 -34 -27 -23 -32 -22 -29 -25 0
-34 -24 -28 -31 -25 -29 -32 -22 -23 -27 0
-25 -29 -32 -34 -22 -23 -24 -27 -28 -31 0
-34 -32 -29 -25 -31 -28 -24 -27 -23 -22 0
-22 -23 -24 -26 -27 -28 -30 -31 -33 -35 0
-26 -24 -23 -22 -35 -33 -30 -31 -28 -27 0
-22 -30 -28 -27 -26 -24 -23 -35 -33 -31 0
-27 -28 -30 -22 -31 -33 -23 -35 -24 -26 0
-27 -23 -33 -31 -22 -30 -28 -26 -24 -35 0
-31 -33 -23 -27 -35 -24 -28 -26 -30 -22 0
-31 -28 -24 -35 -27 -23 -33 -22 -30 -26 0
-35 -24 -28 -31 -26 -30 -33 -22 -23 -27 0
-26 -30 -33 -35 -22 -23 -24 -27 -28 -31 0
-35 -33 -30 -26 -31 -28 -24 -27 -23 -22 0
-22 -23 -25 -26 -27 -29 -30 -32 -33 -36 0
-26 -25 -23 -22 -36 -33 -30 -32 -29 -27 0
-22 -30 -29 -27 -26 -25 -23 -36 -33 -32 0
-27 -29 -30 -22 -32 -33 -23 -36 -25 -26 0
-27 -23 -33 -32 -22 -30 -29 -26 -25 -36 0
-32 -33 -23 -27 -36 -25 -29 -26 -30 -22 0
-32 -29 -25 -36 -27 -23 -33 -22 -30 -26 0
-36 -25 -29 -32 -26 -30 -33 -22 -23 -27 0
-26 -30 -33 -36 -22 -23 -25 -27 -29 -32 0
-36 -33 -30 -26 -32 -29 -25 -27 -23 -22 0
-22 -24 -25 -26 -28 -29 -30 -34 -35 -36 0
-26 -25 -24 -22 -36 -35 -30 -34 -29 -28 0
-22 -30 -29 -28 -26 -25 -24 -36 -35 -34 0
-28 -29 -30 -22 -34 -35 -24 -36 -25 -26 0
-28 -24 -35 -34 -22 -30 -29 -26 -25 -36 0
-34 -35 -24 -28 -36 -25 -29 -26 -30 -22 0
-34 -29 -25 -36 -28 -24 -35 -22 -30 -26 0
-36 -25 -29 -34 -26 -30 -35 -22 -24 -28 0
-26 -30 -35 -36 -22 -24 -25 -28 -29 -34 0
-36 -35 -30 -26 -34 -29 -25 -28 -24 -22 0
-23 -24 -25 -26 -31 -32 -33 -34 -35 -36 0
-26 -25 -24 -23 -36 -35 -33 -34 -32 -31 0
-23 -33 -32 -31 -26 -25 -24 -36 -35 -34 0
-31 -32 -33 -23 -34 -35 -24 -36 -25 -26 0
-31 -24 -35 -34 -23 -33 -32 -26 -25 -36 0
-34 -35 -24 -31 -36 -25 -32 -26 -33 -23 0
-34 -32 -25 -36 -31 -24 -35 -23 -33 -26 0
-36 -25 -32 -34 -26 -33 -35 -23 -24 -31 0
-26 -33 -35 -36 -23 -24 -25 -31 -32 -34 0
-36 -35 -33 -26 -34 -32 -25 -31 -24 -23 0
-27 -28 -29 -30 -31 -32 -33 -34 -35 -36 0
-30 -29 -28 -27 -36 -35 -33 -34 -32 -31 0
-27 -33 -32 -31 -30 -29 -28 -36 -35 -34 0
-31 -32 -33 -27 -34 -35 -28 -36 -29 -30 0
-31 -28 -35 -34 -27 -33 -32 -30 -29 -36 0
-34 -35 -28 -31 -36 -29 -32 -30 -33 -27 0
-34 -32 -29 -36 -31 -28 -35 -27 -33 -30 0
-36 -29 -32 -34 -30 -33 -35 -27 -28 -31 0
-30 -33 -35 -36 -27 -28 -29 -31 -32 -34 0
-36 -35 -33 -30 -34 -32 -29 -31 -28 -27 0
