c Theorem B raw encoding: (P3alt,Dih(3)) vs (K_6,Dih(6)), n=10; SAT expected (witness leg); regenerated 2026-08-13
p cnf 45 3240
2 10 0
1 10 0
10 2 0
1 2 0
10 1 0
2 1 0
3 11 0
1 11 0
11 3 0
1 3 0
11 1 0
3 1 0
4 12 0
1 12 0
12 4 0
1 4 0
12 1 0
4 1 0
5 13 0
1 13 0
13 5 0
1 5 0
13 1 0
5 1 0
6 14 0
1 14 0
14 6 0
1 6 0
14 1 0
6 1 0
7 15 0
1 15 0
15 7 0
1 7 0
15 1 0
7 1 0
8 16 0
1 16 0
16 8 0
1 8 0
16 1 0
8 1 0
9 17 0
1 17 0
17 9 0
1 9 0
17 1 0
9 1 0
3 18 0
2 18 0
18 3 0
2 3 0
18 2 0
3 2 0
4 19 0
2 19 0
19 4 0
2 4 0
19 2 0
4 2 0
5 20 0
2 20 0
20 5 0
2 5 0
20 2 0
5 2 0
6 21 0
2 21 0
21 6 0
2 6 0
21 2 0
6 2 0
7 22 0
2 22 0
22 7 0
2 7 0
22 2 0
7 2 0
8 23 0
2 23 0
23 8 0
2 8 0
23 2 0
8 2 0
9 24 0
2 24 0
24 9 0
2 9 0
24 2 0
9 2 0
4 25 0
3 25 0
25 4 0
3 4 0
25 3 0
4 3 0
5 26 0
3 26 0
26 5 0
3 5 0
26 3 0
5 3 0
6 27 0
3 27 0
27 6 0
3 6 0
27 3 0
6 3 0
7 28 0
3 28 0
28 7 0
3 7 0
28 3 0
7 3 0
8 29 0
3 29 0
29 8 0
3 8 0
29 3 0
8 3 0
9 30 0
3 30 0
30 9 0
3 9 0
30 3 0
9 3 0
5 31 0
4 31 0
31 5 0
4 5 0
31 4 0
5 4 0
6 32 0
4 32 0
32 6 0
4 6 0
32 4 0
6 4 0
7 33 0
4 33 0
33 7 0
4 7 0
33 4 0
7 4 0
8 34 0
4 34 0
34 8 0
4 8 0
34 4 0
8 4 0
9 35 0
4 35 0
35 9 0
4 9 0
35 4 0
9 4 0
6 36 0
5 36 0
36 6 0
5 6 0
36 5 0
6 5 0
7 37 0
5 37 0
37 7 0
5 7 0
37 5 0
7 5 0
8 38 0
5 38 0
38 8 0
5 8 0
38 5 0
8 5 0
9 39 0
5 39 0
39 9 0
5 9 0
39 5 0
9 5 0
7 40 0
6 40 0
40 7 0
6 7 0
40 6 0
7 6 0
8 41 0
6 41 0
41 8 0
6 8 0
41 6 0
8 6 0
9 42 0
6 42 0
42 9 0
6 9 0
42 6 0
9 6 0
8 43 0
7 43 0
43 8 0
7 8 0
43 7 0
8 7 0
9 44 0
7 44 0
44 9 0
7 9 0
44 7 0
9 7 0
9 45 0
8 45 0
45 9 0
8 9 0
45 8 0
9 8 0
11 18 0
10 18 0
18 11 0
10 11 0
18 10 0
11 10 0
12 19 0
10 19 0
19 12 0
10 12 0
19 10 0
12 10 0
13 20 0
10 20 0
20 13 0
10 13 0
20 10 0
13 10 0
14 21 0
10 21 0
21 14 0
10 14 0
21 10 0
14 10 0
15 22 0
10 22 0
22 15 0
10 15 0
22 10 0
15 10 0
16 23 0
10 23 0
23 16 0
10 16 0
23 10 0
16 10 0
17 24 0
10 24 0
24 17 0
10 17 0
24 10 0
17 10 0
12 25 0
11 25 0
25 12 0
11 12 0
25 11 0
12 11 0
13 26 0
11 26 0
26 13 0
11 13 0
26 11 0
13 11 0
14 27 0
11 27 0
27 14 0
11 14 0
27 11 0
14 11 0
15 28 0
11 28 0
28 15 0
11 15 0
28 11 0
15 11 0
16 29 0
11 29 0
29 16 0
11 16 0
29 11 0
16 11 0
17 30 0
11 30 0
30 17 0
11 17 0
30 11 0
17 11 0
13 31 0
12 31 0
31 13 0
12 13 0
31 12 0
13 12 0
14 32 0
12 32 0
32 14 0
12 14 0
32 12 0
14 12 0
15 33 0
12 33 0
33 15 0
12 15 0
33 12 0
15 12 0
16 34 0
12 34 0
34 16 0
12 16 0
34 12 0
16 12 0
17 35 0
12 35 0
35 17 0
12 17 0
35 12 0
17 12 0
14 36 0
13 36 0
36 14 0
13 14 0
36 13 0
14 13 0
15 37 0
13 37 0
37 15 0
13 15 0
37 13 0
15 13 0
16 38 0
13 38 0
38 16 0
13 16 0
38 13 0
16 13 0
17 39 0
13 39 0
39 17 0
13 17 0
39 13 0
17 13 0
15 40 0
14 40 0
40 15 0
14 15 0
40 14 0
15 14 0
16 41 0
14 41 0
41 16 0
14 16 0
41 14 0
16 14 0
17 42 0
14 42 0
42 17 0
14 17 0
42 14 0
17 14 0
16 43 0
15 43 0
43 16 0
15 16 0
43 15 0
16 15 0
17 44 0
15 44 0
44 17 0
15 17 0
44 15 0
17 15 0
17 45 0
16 45 0
45 17 0
16 17 0
45 16 0
17 16 0
19 25 0
18 25 0
25 19 0
18 19 0
25 18 0
19 18 0
20 26 0
18 26 0
26 20 0
18 20 0
26 18 0
20 18 0
21 27 0
18 27 0
27 21 0
18 21 0
27 18 0
21 18 0
22 28 0
18 28 0
28 22 0
18 22 0
28 18 0
22 18 0
23 29 0
18 29 0
29 23 0
18 23 0
29 18 0
23 18 0
24 30 0
18 30 0
30 24 0
18 24 0
30 18 0
24 18 0
20 31 0
19 31 0
31 20 0
19 20 0
31 19 0
20 19 0
21 32 0
19 32 0
32 21 0
19 21 0
32 19 0
21 19 0
22 33 0
19 33 0
33 22 0
19 22 0
33 19 0
22 19 0
23 34 0
19 34 0
34 23 0
19 23 0
34 19 0
23 19 0
24 35 0
19 35 0
35 24 0
19 24 0
35 19 0
24 19 0
21 36 0
20 36 0
36 21 0
20 21 0
36 20 0
21 20 0
22 37 0
20 37 0
37 22 0
20 22 0
37 20 0
22 20 0
23 38 0
20 38 0
38 23 0
20 23 0
38 20 0
23 20 0
24 39 0
20 39 0
39 24 0
20 24 0
39 20 0
24 20 0
22 40 0
21 40 0
40 22 0
21 22 0
40 21 0
22 21 0
23 41 0
21 41 0
41 23 0
21 23 0
41 21 0
23 21 0
24 42 0
21 42 0
42 24 0
21 24 0
42 21 0
24 21 0
23 43 0
22 43 0
43 23 0
22 23 0
43 22 0
23 22 0
24 44 0
22 44 0
44 24 0
22 24 0
44 22 0
24 22 0
24 45 0
23 45 0
45 24 0
23 24 0
45 23 0
24 23 0
26 31 0
25 31 0
31 26 0
25 26 0
31 25 0
26 25 0
27 32 0
25 32 0
32 27 0
25 27 0
32 25 0
27 25 0
28 33 0
25 33 0
33 28 0
25 28 0
33 25 0
28 25 0
29 34 0
25 34 0
34 29 0
25 29 0
34 25 0
29 25 0
30 35 0
25 35 0
35 30 0
25 30 0
35 25 0
30 25 0
27 36 0
26 36 0
36 27 0
26 27 0
36 26 0
27 26 0
28 37 0
26 37 0
37 28 0
26 28 0
37 26 0
28 26 0
29 38 0
26 38 0
38 29 0
26 29 0
38 26 0
29 26 0
30 39 0
26 39 0
39 30 0
26 30 0
39 26 0
30 26 0
28 40 0
27 40 0
40 28 0
27 28 0
40 27 0
28 27 0
29 41 0
27 41 0
41 29 0
27 29 0
41 27 0
29 27 0
30 42 0
27 42 0
42 30 0
27 30 0
42 27 0
30 27 0
29 43 0
28 43 0
43 29 0
28 29 0
43 28 0
29 28 0
30 44 0
28 44 0
44 30 0
28 30 0
44 28 0
30 28 0
30 45 0
29 45 0
45 30 0
29 30 0
45 29 0
30 29 0
32 36 0
31 36 0
36 32 0
31 32 0
36 31 0
32 31 0
33 37 0
31 37 0
37 33 0
31 33 0
37 31 0
33 31 0
34 38 0
31 38 0
38 34 0
31 34 0
38 31 0
34 31 0
35 39 0
31 39 0
39 35 0
31 35 0
39 31 0
35 31 0
33 40 0
32 40 0
40 33 0
32 33 0
40 32 0
33 32 0
34 41 0
32 41 0
41 34 0
32 34 0
41 32 0
34 32 0
35 42 0
32 42 0
42 35 0
32 35 0
42 32 0
35 32 0
34 43 0
33 43 0
43 34 0
33 34 0
43 33 0
34 33 0
35 44 0
33 44 0
44 35 0
33 35 0
44 33 0
35 33 0
35 45 0
34 45 0
45 35 0
34 35 0
45 34 0
35 34 0
37 40 0
36 40 0
40 37 0
36 37 0
40 36 0
37 36 0
38 41 0
36 41 0
41 38 0
36 38 0
41 36 0
38 36 0
39 42 0
36 42 0
42 39 0
36 39 0
42 36 0
39 36 0
38 43 0
37 43 0
43 38 0
37 38 0
43 37 0
38 37 0
39 44 0
37 44 0
44 39 0
37 39 0
44 37 0
39 37 0
39 45 0
38 45 0
45 39 0
38 39 0
45 38 0
39 38 0
41 43 0
40 43 0
43 41 0
40 41 0
43 40 0
41 40 0
42 44 0
40 44 0
44 42 0
40 42 0
44 40 0
42 40 0
42 45 0
41 45 0
45 42 0
41 42 0
45 41 0
42 41 0
44 45 0
43 45 0
45 44 0
43 44 0
45 43 0
44 43 0
-1 -2 -3 -4 -5 -10 -11 -12 -13 -18 -19 -20 -25 -26 -31 0
-5 -4 -3 -2 -1 -31 -26 -20 -13 -25 -19 -12 -18 -11 -10 0
-1 -13 -12 -11 -10 -5 -4 -3 -2 -31 -26 -20 -25 -19 -18 0
-10 -11 -12 -13 -1 -18 -19 -20 -2 -25 -26 -3 -31 -4 -5 0
-10 -2 -20 -19 -18 -1 -13 -12 -11 -5 -4 -3 -31 -26 -25 0
-18 -19 -20 -2 -10 -25 -26 -3 -11 -31 -4 -12 -5 -13 -1 0
-18 -11 -3 -26 -25 -10 -2 -20 -19 -1 -13 -12 -5 -4 -31 0
-25 -26 -3 -11 -18 -31 -4 -12 -19 -5 -13 -20 -1 -2 -10 0
-25 -19 -12 -4 -31 -18 -11 -3 -26 -10 -2 -20 -1 -13 -5 0
-31 -4 -12 -19 -25 -5 -13 -20 -26 -1 -2 -3 -10 -11 -18 0
-5 -13 -20 -26 -31 -1 -2 -3 -4 -10 -11 -12 -18 -19 -25 0
-31 -26 -20 -13 -5 -25 -19 -12 -4 -18 -11 -3 -10 -2 -1 0
-1 -2 -3 -4 -6 -10 -11 -12 -14 -18 -19 -21 -25 -27 -32 0
-6 -4 -3 -2 -1 -32 -27 -21 -14 -25 -19 -12 -18 -11 -10 0
-1 -14 -12 -11 -10 -6 -4 -3 -2 -32 -27 -21 -25 -19 -18 0
-10 -11 -12 -14 -1 -18 -19 -21 -2 -25 -27 -3 -32 -4 -6 0
-10 -2 -21 -19 -18 -1 -14 -12 -11 -6 -4 -3 -32 -27 -25 0
-18 -19 -21 -2 -10 -25 -27 -3 -11 -32 -4 -12 -6 -14 -1 0
-18 -11 -3 -27 -25 -10 -2 -21 -19 -1 -14 -12 -6 -4 -32 0
-25 -27 -3 -11 -18 -32 -4 -12 -19 -6 -14 -21 -1 -2 -10 0
-25 -19 -12 -4 -32 -18 -11 -3 -27 -10 -2 -21 -1 -14 -6 0
-32 -4 -12 -19 -25 -6 -14 -21 -27 -1 -2 -3 -10 -11 -18 0
-6 -14 -21 -27 -32 -1 -2 -3 -4 -10 -11 -12 -18 -19 -25 0
-32 -27 -21 -14 -6 -25 -19 -12 -4 -18 -11 -3 -10 -2 -1 0
-1 -2 -3 -4 -7 -10 -11 -12 -15 -18 -19 -22 -25 -28 -33 0
-7 -4 -3 -2 -1 -33 -28 -22 -15 -25 -19 -12 -18 -11 -10 0
-1 -15 -12 -11 -10 -7 -4 -3 -2 -33 -28 -22 -25 -19 -18 0
-10 -11 -12 -15 -1 -18 -19 -22 -2 -25 -28 -3 -33 -4 -7 0
-10 -2 -22 -19 -18 -1 -15 -12 -11 -7 -4 -3 -33 -28 -25 0
-18 -19 -22 -2 -10 -25 -28 -3 -11 -33 -4 -12 -7 -15 -1 0
-18 -11 -3 -28 -25 -10 -2 -22 -19 -1 -15 -12 -7 -4 -33 0
-25 -28 -3 -11 -18 -33 -4 -12 -19 -7 -15 -22 -1 -2 -10 0
-25 -19 -12 -4 -33 -18 -11 -3 -28 -10 -2 -22 -1 -15 -7 0
-33 -4 -12 -19 -25 -7 -15 -22 -28 -1 -2 -3 -10 -11 -18 0
-7 -15 -22 -28 -33 -1 -2 -3 -4 -10 -11 -12 -18 -19 -25 0
-33 -28 -22 -15 -7 -25 -19 -12 -4 -18 -11 -3 -10 -2 -1 0
-1 -2 -3 -4 -8 -10 -11 -12 -16 -18 -19 -23 -25 -29 -34 0
-8 -4 -3 -2 -1 -34 -29 -23 -16 -25 -19 -12 -18 -11 -10 0
-1 -16 -12 -11 -10 -8 -4 -3 -2 -34 -29 -23 -25 -19 -18 0
-10 -11 -12 -16 -1 -18 -19 -23 -2 -25 -29 -3 -34 -4 -8 0
-10 -2 -23 -19 -18 -1 -16 -12 -11 -8 -4 -3 -34 -29 -25 0
-18 -19 -23 -2 -10 -25 -29 -3 -11 -34 -4 -12 -8 -16 -1 0
-18 -11 -3 -29 -25 -10 -2 -23 -19 -1 -16 -12 -8 -4 -34 0
-25 -29 -3 -11 -18 -34 -4 -12 -19 -8 -16 -23 -1 -2 -10 0
-25 -19 -12 -4 -34 -18 -11 -3 -29 -10 -2 -23 -1 -16 -8 0
-34 -4 -12 -19 -25 -8 -16 -23 -29 -1 -2 -3 -10 -11 -18 0
-8 -16 -23 -29 -34 -1 -2 -3 -4 -10 -11 -12 -18 -19 -25 0
-34 -29 -23 -16 -8 -25 -19 -12 -4 -18 -11 -3 -10 -2 -1 0
-1 -2 -3 -4 -9 -10 -11 -12 -17 -18 -19 -24 -25 -30 -35 0
-9 -4 -3 -2 -1 -35 -30 -24 -17 -25 -19 -12 -18 -11 -10 0
-1 -17 -12 -11 -10 -9 -4 -3 -2 -35 -30 -24 -25 -19 -18 0
-10 -11 -12 -17 -1 -18 -19 -24 -2 -25 -30 -3 -35 -4 -9 0
-10 -2 -24 -19 -18 -1 -17 -12 -11 -9 -4 -3 -35 -30 -25 0
-18 -19 -24 -2 -10 -25 -30 -3 -11 -35 -4 -12 -9 -17 -1 0
-18 -11 -3 -30 -25 -10 -2 -24 -19 -1 -17 -12 -9 -4 -35 0
-25 -30 -3 -11 -18 -35 -4 -12 -19 -9 -17 -24 -1 -2 -10 0
-25 -19 -12 -4 -35 -18 -11 -3 -30 -10 -2 -24 -1 -17 -9 0
-35 -4 -12 -19 -25 -9 -17 -24 -30 -1 -2 -3 -10 -11 -18 0
-9 -17 -24 -30 -35 -1 -2 -3 -4 -10 -11 -12 -18 -19 -25 0
-35 -30 -24 -17 -9 -25 -19 -12 -4 -18 -11 -3 -10 -2 -1 0
-1 -2 -3 -5 -6 -10 -11 -13 -14 -18 -20 -21 -26 -27 -36 0
-6 -5 -3 -2 -1 -36 -27 -21 -14 -26 -20 -13 -18 -11 -10 0
-1 -14 -13 -11 -10 -6 -5 -3 -2 -36 -27 -21 -26 -20 -18 0
-10 -11 -13 -14 -1 -18 -20 -21 -2 -26 -27 -3 -36 -5 -6 0
-10 -2 -21 -20 -18 -1 -14 -13 -11 -6 -5 -3 -36 -27 -26 0
-18 -20 -21 -2 -10 -26 -27 -3 -11 -36 -5 -13 -6 -14 -1 0
-18 -11 -3 -27 -26 -10 -2 -21 -20 -1 -14 -13 -6 -5 -36 0
-26 -27 -3 -11 -18 -36 -5 -13 -20 -6 -14 -21 -1 -2 -10 0
-26 -20 -13 -5 -36 -18 -11 -3 -27 -10 -2 -21 -1 -14 -6 0
-36 -5 -13 -20 -26 -6 -14 -21 -27 -1 -2 -3 -10 -11 -18 0
-6 -14 -21 -27 -36 -1 -2 -3 -5 -10 -11 -13 -18 -20 -26 0
-36 -27 -21 -14 -6 -26 -20 -13 -5 -18 -11 -3 -10 -2 -1 0
-1 -2 -3 -5 -7 -10 -11 -13 -15 -18 -20 -22 -26 -28 -37 0
-7 -5 -3 -2 -1 -37 -28 -22 -15 -26 -20 -13 -18 -11 -10 0
-1 -15 -13 -11 -10 -7 -5 -3 -2 -37 -28 -22 -26 -20 -18 0
-10 -11 -13 -15 -1 -18 -20 -22 -2 -26 -28 -3 -37 -5 -7 0
-10 -2 -22 -20 -18 -1 -15 -13 -11 -7 -5 -3 -37 -28 -26 0
-18 -20 -22 -2 -10 -26 -28 -3 -11 -37 -5 -13 -7 -15 -1 0
-18 -11 -3 -28 -26 -10 -2 -22 -20 -1 -15 -13 -7 -5 -37 0
-26 -28 -3 -11 -18 -37 -5 -13 -20 -7 -15 -22 -1 -2 -10 0
-26 -20 -13 -5 -37 -18 -11 -3 -28 -10 -2 -22 -1 -15 -7 0
-37 -5 -13 -20 -26 -7 -15 -22 -28 -1 -2 -3 -10 -11 -18 0
-7 -15 -22 -28 -37 -1 -2 -3 -5 -10 -11 -13 -18 -20 -26 0
-37 -28 -22 -15 -7 -26 -20 -13 -5 -18 -11 -3 -10 -2 -1 0
-1 -2 -3 -5 -8 -10 -11 -13 -16 -18 -20 -23 -26 -29 -38 0
-8 -5 -3 -2 -1 -38 -29 -23 -16 -26 -20 -13 -18 -11 -10 0
-1 -16 -13 -11 -10 -8 -5 -3 -2 -38 -29 -23 -26 -20 -18 0
-10 -11 -13 -16 -1 -18 -20 -23 -2 -26 -29 -3 -38 -5 -8 0
-10 -2 -23 -20 -18 -1 -16 -13 -11 -8 -5 -3 -38 -29 -26 0
-18 -20 -23 -2 -10 -26 -29 -3 -11 -38 -5 -13 -8 -16 -1 0
-18 -11 -3 -29 -26 -10 -2 -23 -20 -1 -16 -13 -8 -5 -38 0
-26 -29 -3 -11 -18 -38 -5 -13 -20 -8 -16 -23 -1 -2 -10 0
-26 -20 -13 -5 -38 -18 -11 -3 -29 -10 -2 -23 -1 -16 -8 0
-38 -5 -13 -20 -26 -8 -16 -23 -29 -1 -2 -3 -10 -11 -18 0
-8 -16 -23 -29 -38 -1 -2 -3 -5 -10 -11 -13 -18 -20 -26 0
-38 -29 -23 -16 -8 -26 -20 -13 -5 -18 -11 -3 -10 -2 -1 0
-1 -2 -3 -5 -9 -10 -11 -13 -17 -18 -20 -24 -26 -30 -39 0
-9 -5 -3 -2 -1 -39 -30 -24 -17 -26 -20 -13 -18 -11 -10 0
-1 -17 -13 -11 -10 -9 -5 -3 -2 -39 -30 -24 -26 -20 -18 0
-10 -11 -13 -17 -1 -18 -20 -24 -2 -26 -30 -3 -39 -5 -9 0
-10 -2 -24 -20 -18 -1 -17 -13 -11 -9 -5 -3 -39 -30 -26 0
-18 -20 -24 -2 -10 -26 -30 -3 -11 -39 -5 -13 -9 -17 -1 0
-18 -11 -3 -30 -26 -10 -2 -24 -20 -1 -17 -13 -9 -5 -39 0
-26 -30 -3 -11 -18 -39 -5 -13 -20 -9 -17 -24 -1 -2 -10 0
-26 -20 -13 -5 -39 -18 -11 -3 -30 -10 -2 -24 -1 -17 -9 0
-39 -5 -13 -20 -26 -9 -17 -24 -30 -1 -2 -3 -10 -11 -18 0
-9 -17 -24 -30 -39 -1 -2 -3 -5 -10 -11 -13 -18 -20 -26 0
-39 -30 -24 -17 -9 -26 -20 -13 -5 -18 -11 -3 -10 -2 -1 0
-1 -2 -3 -6 -7 -10 -11 -14 -15 -18 -21 -22 -27 -28 -40 0
-7 -6 -3 -2 -1 -40 -28 -22 -15 -27 -21 -14 -18 -11 -10 0
-1 -15 -14 -11 -10 -7 -6 -3 -2 -40 -28 -22 -27 -21 -18 0
-10 -11 -14 -15 -1 -18 -21 -22 -2 -27 -28 -3 -40 -6 -7 0
-10 -2 -22 -21 -18 -1 -15 -14 -11 -7 -6 -3 -40 -28 -27 0
-18 -21 -22 -2 -10 -27 -28 -3 -11 -40 -6 -14 -7 -15 -1 0
-18 -11 -3 -28 -27 -10 -2 -22 -21 -1 -15 -14 -7 -6 -40 0
-27 -28 -3 -11 -18 -40 -6 -14 -21 -7 -15 -22 -1 -2 -10 0
-27 -21 -14 -6 -40 -18 -11 -3 -28 -10 -2 -22 -1 -15 -7 0
-40 -6 -14 -21 -27 -7 -15 -22 -28 -1 -2 -3 -10 -11 -18 0
-7 -15 -22 -28 -40 -1 -2 -3 -6 -10 -11 -14 -18 -21 -27 0
-40 -28 -22 -15 -7 -27 -21 -14 -6 -18 -11 -3 -10 -2 -1 0
-1 -2 -3 -6 -8 -10 -11 -14 -16 -18 -21 -23 -27 -29 -41 0
-8 -6 -3 -2 -1 -41 -29 -23 -16 -27 -21 -14 -18 -11 -10 0
-1 -16 -14 -11 -10 -8 -6 -3 -2 -41 -29 -23 -27 -21 -18 0
-10 -11 -14 -16 -1 -18 -21 -23 -2 -27 -29 -3 -41 -6 -8 0
-10 -2 -23 -21 -18 -1 -16 -14 -11 -8 -6 -3 -41 -29 -27 0
-18 -21 -23 -2 -10 -27 -29 -3 -11 -41 -6 -14 -8 -16 -1 0
-18 -11 -3 -29 -27 -10 -2 -23 -21 -1 -16 -14 -8 -6 -41 0
-27 -29 -3 -11 -18 -41 -6 -14 -21 -8 -16 -23 -1 -2 -10 0
-27 -21 -14 -6 -41 -18 -11 -3 -29 -10 -2 -23 -1 -16 -8 0
-41 -6 -14 -21 -27 -8 -16 -23 -29 -1 -2 -3 -10 -11 -18 0
-8 -16 -23 -29 -41 -1 -2 -3 -6 -10 -11 -14 -18 -21 -27 0
-41 -29 -23 -16 -8 -27 -21 -14 -6 -18 -11 -3 -10 -2 -1 0
-1 -2 -3 -6 -9 -10 -11 -14 -17 -18 -21 -24 -27 -30 -42 0
-9 -6 -3 -2 -1 -42 -30 -24 -17 -27 -21 -14 -18 -11 -10 0
-1 -17 -14 -11 -10 -9 -6 -3 -2 -42 -30 -24 -27 -21 -18 0
-10 -11 -14 -17 -1 -18 -21 -24 -2 -27 -30 -3 -42 -6 -9 0
-10 -2 -24 -21 -18 -1 -17 -14 -11 -9 -6 -3 -42 -30 -27 0
-18 -21 -24 -2 -10 -27 -30 -3 -11 -42 -6 -14 -9 -17 -1 0
-18 -11 -3 -30 -27 -10 -2 -24 -21 -1 -17 -14 -9 -6 -42 0
-27 -30 -3 -11 -18 -42 -6 -14 -21 -9 -17 -24 -1 -2 -10 0
-27 -21 -14 -6 -42 -18 -11 -3 -30 -10 -2 -24 -1 -17 -9 0
-42 -6 -14 -21 -27 -9 -17 -24 -30 -1 -2 -3 -10 -11 -18 0
-9 -17 -24 -30 -42 -1 -2 -3 -6 -10 -11 -14 -18 -21 -27 0
-42 -30 -24 -17 -9 -27 -21 -14 -6 -18 -11 -3 -10 -2 -1 0
-1 -2 -3 -7 -8 -10 -11 -15 -16 -18 -22 -23 -28 -29 -43 0
-8 -7 -3 -2 -1 -43 -29 -23 -16 -28 -22 -15 -18 -11 -10 0
-1 -16 -15 -11 -10 -8 -7 -3 -2 -43 -29 -23 -28 -22 -18 0
-10 -11 -15 -16 -1 -18 -22 -23 -2 -28 -29 -3 -43 -7 -8 0
-10 -2 -23 -22 -18 -1 -16 -15 -11 -8 -7 -3 -43 -29 -28 0
-18 -22 -23 -2 -10 -28 -29 -3 -11 -43 -7 -15 -8 -16 -1 0
-18 -11 -3 -29 -28 -10 -2 -23 -22 -1 -16 -15 -8 -7 -43 0
-28 -29 -3 -11 -18 -43 -7 -15 -22 -8 -16 -23 -1 -2 -10 0
-28 -22 -15 -7 -43 -18 -11 -3 -29 -10 -2 -23 -1 -16 -8 0
-43 -7 -15 -22 -28 -8 -16 -23 -29 -1 -2 -3 -10 -11 -18 0
-8 -16 -23 -29 -43 -1 -2 -3 -7 -10 -11 -15 -18 -22 -28 0
-43 -29 -23 -16 -8 -28 -22 -15 -7 -18 -11 -3 -10 -2 -1 0
-1 -2 -3 -7 -9 -10 -11 -15 -17 -18 -22 -24 -28 -30 -44 0
-9 -7 -3 -2 -1 -44 -30 -24 -17 -28 -22 -15 -18 -11 -10 0
-1 -17 -15 -11 -10 -9 -7 -3 -2 -44 -30 -24 -28 -22 -18 0
-10 -11 -15 -17 -1 -18 -22 -24 -2 -28 -30 -3 -44 -7 -9 0
-10 -2 -24 -22 -18 -1 -17 -15 -11 -9 -7 -3 -44 -30 -28 0
-18 -22 -24 -2 -10 -28 -30 -3 -11 -44 -7 -15 -9 -17 -1 0
-18 -11 -3 -30 -28 -10 -2 -24 -22 -1 -17 -15 -9 -7 -44 0
-28 -30 -3 -11 -18 -44 -7 -15 -22 -9 -17 -24 -1 -2 -10 0
-28 -22 -15 -7 -44 -18 -11 -3 -30 -10 -2 -24 -1 -17 -9 0
-44 -7 -15 -22 -28 -9 -17 -24 -30 -1 -2 -3 -10 -11 -18 0
-9 -17 -24 -30 -44 -1 -2 -3 -7 -10 -11 -15 -18 -22 -28 0
-44 -30 -24 -17 -9 -28 -22 -15 -7 -18 -11 -3 -10 -2 -1 0
-1 -2 -3 -8 -9 -10 -11 -16 -17 -18 -23 -24 -29 -30 -45 0
-9 -8 -3 -2 -1 -45 -30 -24 -17 -29 -23 -16 -18 -11 -10 0
-1 -17 -16 -11 -10 -9 -8 -3 -2 -45 -30 -24 -29 -23 -18 0
-10 -11 -16 -17 -1 -18 -23 -24 -2 -29 -30 -3 -45 -8 -9 0
-10 -2 -24 -23 -18 -1 -17 -16 -11 -9 -8 -3 -45 -30 -29 0
-18 -23 -24 -2 -10 -29 -30 -3 -11 -45 -8 -16 -9 -17 -1 0
-18 -11 -3 -30 -29 -10 -2 -24 -23 -1 -17 -16 -9 -8 -45 0
-29 -30 -3 -11 -18 -45 -8 -16 -23 -9 -17 -24 -1 -2 -10 0
-29 -23 -16 -8 -45 -18 -11 -3 -30 -10 -2 -24 -1 -17 -9 0
-45 -8 -16 -23 -29 -9 -17 -24 -30 -1 -2 -3 -10 -11 -18 0
-9 -17 -24 -30 -45 -1 -2 -3 -8 -10 -11 -16 -18 -23 -29 0
-45 -30 -24 -17 -9 -29 -23 -16 -8 -18 -11 -3 -10 -2 -1 0
-1 -2 -4 -5 -6 -10 -12 -13 -14 -19 -20 -21 -31 -32 -36 0
-6 -5 -4 -2 -1 -36 -32 -21 -14 -31 -20 -13 -19 -12 -10 0
-1 -14 -13 -12 -10 -6 -5 -4 -2 -36 -32 -21 -31 -20 -19 0
-10 -12 -13 -14 -1 -19 -20 -21 -2 -31 -32 -4 -36 -5 -6 0
-10 -2 -21 -20 -19 -1 -14 -13 -12 -6 -5 -4 -36 -32 -31 0
-19 -20 -21 -2 -10 -31 -32 -4 -12 -36 -5 -13 -6 -14 -1 0
-19 -12 -4 -32 -31 -10 -2 -21 -20 -1 -14 -13 -6 -5 -36 0
-31 -32 -4 -12 -19 -36 -5 -13 -20 -6 -14 -21 -1 -2 -10 0
-31 -20 -13 -5 -36 -19 -12 -4 -32 -10 -2 -21 -1 -14 -6 0
-36 -5 -13 -20 -31 -6 -14 -21 -32 -1 -2 -4 -10 -12 -19 0
-6 -14 -21 -32 -36 -1 -2 -4 -5 -10 -12 -13 -19 -20 -31 0
-36 -32 -21 -14 -6 -31 -20 -13 -5 -19 -12 -4 -10 -2 -1 0
-1 -2 -4 -5 -7 -10 -12 -13 -15 -19 -20 -22 -31 -33 -37 0
-7 -5 -4 -2 -1 -37 -33 -22 -15 -31 -20 -13 -19 -12 -10 0
-1 -15 -13 -12 -10 -7 -5 -4 -2 -37 -33 -22 -31 -20 -19 0
-10 -12 -13 -15 -1 -19 -20 -22 -2 -31 -33 -4 -37 -5 -7 0
-10 -2 -22 -20 -19 -1 -15 -13 -12 -7 -5 -4 -37 -33 -31 0
-19 -20 -22 -2 -10 -31 -33 -4 -12 -37 -5 -13 -7 -15 -1 0
-19 -12 -4 -33 -31 -10 -2 -22 -20 -1 -15 -13 -7 -5 -37 0
-31 -33 -4 -12 -19 -37 -5 -13 -20 -7 -15 -22 -1 -2 -10 0
-31 -20 -13 -5 -37 -19 -12 -4 -33 -10 -2 -22 -1 -15 -7 0
-37 -5 -13 -20 -31 -7 -15 -22 -33 -1 -2 -4 -10 -12 -19 0
-7 -15 -22 -33 -37 -1 -2 -4 -5 -10 -12 -13 -19 -20 -31 0
-37 -33 -22 -15 -7 -31 -20 -13 -5 -19 -12 -4 -10 -2 -1 0
-1 -2 -4 -5 -8 -10 -12 -13 -16 -19 -20 -23 -31 -34 -38 0
-8 -5 -4 -2 -1 -38 -34 -23 -16 -31 -20 -13 -19 -12 -10 0
-1 -16 -13 -12 -10 -8 -5 -4 -2 -38 -34 -23 -31 -20 -19 0
-10 -12 -13 -16 -1 -19 -20 -23 -2 -31 -34 -4 -38 -5 -8 0
-10 -2 -23 -20 -19 -1 -16 -13 -12 -8 -5 -4 -38 -34 -31 0
-19 -20 -23 -2 -10 -31 -34 -4 -12 -38 -5 -13 -8 -16 -1 0
-19 -12 -4 -34 -31 -10 -2 -23 -20 -1 -16 -13 -8 -5 -38 0
-31 -34 -4 -12 -19 -38 -5 -13 -20 -8 -16 -23 -1 -2 -10 0
-31 -20 -13 -5 -38 -19 -12 -4 -34 -10 -2 -23 -1 -16 -8 0
-38 -5 -13 -20 -31 -8 -16 -23 -34 -1 -2 -4 -10 -12 -19 0
-8 -16 -23 -34 -38 -1 -2 -4 -5 -10 -12 -13 -19 -20 -31 0
-38 -34 -23 -16 -8 -31 -20 -13 -5 -19 -12 -4 -10 -2 -1 0
-1 -2 -4 -5 -9 -10 -12 -13 -17 -19 -20 -24 -31 -35 -39 0
-9 -5 -4 -2 -1 -39 -35 -24 -17 -31 -20 -13 -19 -12 -10 0
-1 -17 -13 -12 -10 -9 -5 -4 -2 -39 -35 -24 -31 -20 -19 0
-10 -12 -13 -17 -1 -19 -20 -24 -2 -31 -35 -4 -39 -5 -9 0
-10 -2 -24 -20 -19 -1 -17 -13 -12 -9 -5 -4 -39 -35 -31 0
-19 -20 -24 -2 -10 -31 -35 -4 -12 -39 -5 -13 -9 -17 -1 0
-19 -12 -4 -35 -31 -10 -2 -24 -20 -1 -17 -13 -9 -5 -39 0
-31 -35 -4 -12 -19 -39 -5 -13 -20 -9 -17 -24 -1 -2 -10 0
-31 -20 -13 -5 -39 -19 -12 -4 -35 -10 -2 -24 -1 -17 -9 0
-39 -5 -13 -20 -31 -9 -17 -24 -35 -1 -2 -4 -10 -12 -19 0
-9 -17 -24 -35 -39 -1 -2 -4 -5 -10 -12 -13 -19 -20 -31 0
-39 -35 -24 -17 -9 -31 -20 -13 -5 -19 -12 -4 -10 -2 -1 0
-1 -2 -4 -6 -7 -10 -12 -14 -15 -19 -21 -22 -32 -33 -40 0
-7 -6 -4 -2 -1 -40 -33 -22 -15 -32 -21 -14 -19 -12 -10 0
-1 -15 -14 -12 -10 -7 -6 -4 -2 -40 -33 -22 -32 -21 -19 0
-10 -12 -14 -15 -1 -19 -21 -22 -2 -32 -33 -4 -40 -6 -7 0
-10 -2 -22 -21 -19 -1 -15 -14 -12 -7 -6 -4 -40 -33 -32 0
-19 -21 -22 -2 -10 -32 -33 -4 -12 -40 -6 -14 -7 -15 -1 0
-19 -12 -4 -33 -32 -10 -2 -22 -21 -1 -15 -14 -7 -6 -40 0
-32 -33 -4 -12 -19 -40 -6 -14 -21 -7 -15 -22 -1 -2 -10 0
-32 -21 -14 -6 -40 -19 -12 -4 -33 -10 -2 -22 -1 -15 -7 0
-40 -6 -14 -21 -32 -7 -15 -22 -33 -1 -2 -4 -10 -12 -19 0
-7 -15 -22 -33 -40 -1 -2 -4 -6 -10 -12 -14 -19 -21 -32 0
-40 -33 -22 -15 -7 -32 -21 -14 -6 -19 -12 -4 -10 -2 -1 0
-1 -2 -4 -6 -8 -10 -12 -14 -16 -19 -21 -23 -32 -34 -41 0
-8 -6 -4 -2 -1 -41 -34 -23 -16 -32 -21 -14 -19 -12 -10 0
-1 -16 -14 -12 -10 -8 -6 -4 -2 -41 -34 -23 -32 -21 -19 0
-10 -12 -14 -16 -1 -19 -21 -23 -2 -32 -34 -4 -41 -6 -8 0
-10 -2 -23 -21 -19 -1 -16 -14 -12 -8 -6 -4 -41 -34 -32 0
-19 -21 -23 -2 -10 -32 -34 -4 -12 -41 -6 -14 -8 -16 -1 0
-19 -12 -4 -34 -32 -10 -2 -23 -21 -1 -16 -14 -8 -6 -41 0
-32 -34 -4 -12 -19 -41 -6 -14 -21 -8 -16 -23 -1 -2 -10 0
-32 -21 -14 -6 -41 -19 -12 -4 -34 -10 -2 -23 -1 -16 -8 0
-41 -6 -14 -21 -32 -8 -16 -23 -34 -1 -2 -4 -10 -12 -19 0
-8 -16 -23 -34 -41 -1 -2 -4 -6 -10 -12 -14 -19 -21 -32 0
-41 -34 -23 -16 -8 -32 -21 -14 -6 -19 -12 -4 -10 -2 -1 0
-1 -2 -4 -6 -9 -10 -12 -14 -17 -19 -21 -24 -32 -35 -42 0
-9 -6 -4 -2 -1 -42 -35 -24 -17 -32 -21 -14 -19 -12 -10 0
-1 -17 -14 -12 -10 -9 -6 -4 -2 -42 -35 -24 -32 -21 -19 0
-10 -12 -14 -17 -1 -19 -21 -24 -2 -32 -35 -4 -42 -6 -9 0
-10 -2 -24 -21 -19 -1 -17 -14 -12 -9 -6 -4 -42 -35 -32 0
-19 -21 -24 -2 -10 -32 -35 -4 -12 -42 -6 -14 -9 -17 -1 0
-19 -12 -4 -35 -32 -10 -2 -24 -21 -1 -17 -14 -9 -6 -42 0
-32 -35 -4 -12 -19 -42 -6 -14 -21 -9 -17 -24 -1 -2 -10 0
-32 -21 -14 -6 -42 -19 -12 -4 -35 -10 -2 -24 -1 -17 -9 0
-42 -6 -14 -21 -32 -9 -17 -24 -35 -1 -2 -4 -10 -12 -19 0
-9 -17 -24 -35 -42 -1 -2 -4 -6 -10 -12 -14 -19 -21 -32 0
-42 -35 -24 -17 -9 -32 -21 -14 -6 -19 -12 -4 -10 -2 -1 0
-1 -2 -4 -7 -8 -10 -12 -15 -16 -19 -22 -23 -33 -34 -43 0
-8 -7 -4 -2 -1 -43 -34 -23 -16 -33 -22 -15 -19 -12 -10 0
-1 -16 -15 -12 -10 -8 -7 -4 -2 -43 -34 -23 -33 -22 -19 0
-10 -12 -15 -16 -1 -19 -22 -23 -2 -33 -34 -4 -43 -7 -8 0
-10 -2 -23 -22 -19 -1 -16 -15 -12 -8 -7 -4 -43 -34 -33 0
-19 -22 -23 -2 -10 -33 -34 -4 -12 -43 -7 -15 -8 -16 -1 0
-19 -12 -4 -34 -33 -10 -2 -23 -22 -1 -16 -15 -8 -7 -43 0
-33 -34 -4 -12 -19 -43 -7 -15 -22 -8 -16 -23 -1 -2 -10 0
-33 -22 -15 -7 -43 -19 -12 -4 -34 -10 -2 -23 -1 -16 -8 0
-43 -7 -15 -22 -33 -8 -16 -23 -34 -1 -2 -4 -10 -12 -19 0
-8 -16 -23 -34 -43 -1 -2 -4 -7 -10 -12 -15 -19 -22 -33 0
-43 -34 -23 -16 -8 -33 -22 -15 -7 -19 -12 -4 -10 -2 -1 0
-1 -2 -4 -7 -9 -10 -12 -15 -17 -19 -22 -24 -33 -35 -44 0
-9 -7 -4 -2 -1 -44 -35 -24 -17 -33 -22 -15 -19 -12 -10 0
-1 -17 -15 -12 -10 -9 -7 -4 -2 -44 -35 -24 -33 -22 -19 0
-10 -12 -15 -17 -1 -19 -22 -24 -2 -33 -35 -4 -44 -7 -9 0
-10 -2 -24 -22 -19 -1 -17 -15 -12 -9 -7 -4 -44 -35 -33 0
-19 -22 -24 -2 -10 -33 -35 -4 -12 -44 -7 -15 -9 -17 -1 0
-19 -12 -4 -35 -33 -10 -2 -24 -22 -1 -17 -15 -9 -7 -44 0
-33 -35 -4 -12 -19 -44 -7 -15 -22 -9 -17 -24 -1 -2 -10 0
-33 -22 -15 -7 -44 -19 -12 -4 -35 -10 -2 -24 -1 -17 -9 0
-44 -7 -15 -22 -33 -9 -17 -24 -35 -1 -2 -4 -10 -12 -19 0
-9 -17 -24 -35 -44 -1 -2 -4 -7 -10 -12 -15 -19 -22 -33 0
-44 -35 -24 -17 -9 -33 -22 -15 -7 -19 -12 -4 -10 -2 -1 0
-1 -2 -4 -8 -9 -10 -12 -16 -17 -19 -23 -24 -34 -35 -45 0
-9 -8 -4 -2 -1 -45 -35 -24 -17 -34 -23 -16 -19 -12 -10 0
-1 -17 -16 -12 -10 -9 -8 -4 -2 -45 -35 -24 -34 -23 -19 0
-10 -12 -16 -17 -1 -19 -23 -24 -2 -34 -35 -4 -45 -8 -9 0
-10 -2 -24 -23 -19 -1 -17 -16 -12 -9 -8 -4 -45 -35 -34 0
-19 -23 -24 -2 -10 -34 -35 -4 -12 -45 -8 -16 -9 -17 -1 0
-19 -12 -4 -35 -34 -10 -2 -24 -23 -1 -17 -16 -9 -8 -45 0
-34 -35 -4 -12 -19 -45 -8 -16 -23 -9 -17 -24 -1 -2 -10 0
-34 -23 -16 -8 -45 -19 -12 -4 -35 -10 -2 -24 -1 -17 -9 0
-45 -8 -16 -23 -34 -9 -17 -24 -35 -1 -2 -4 -10 -12 -19 0
-9 -17 -24 -35 -45 -1 -2 -4 -8 -10 -12 -16 -19 -23 -34 0
-45 -35 -24 -17 -9 -34 -23 -16 -8 -19 -12 -4 -10 -2 -1 0
-1 -2 -5 -6 -7 -10 -13 -14 -15 -20 -21 -22 -36 -37 -40 0
-7 -6 -5 -2 -1 -40 -37 -22 -15 -36 -21 -14 -20 -13 -10 0
-1 -15 -14 -13 -10 -7 -6 -5 -2 -40 -37 -22 -36 -21 -20 0
-10 -13 -14 -15 -1 -20 -21 -22 -2 -36 -37 -5 -40 -6 -7 0
-10 -2 -22 -21 -20 -1 -15 -14 -13 -7 -6 -5 -40 -37 -36 0
-20 -21 -22 -2 -10 -36 -37 -5 -13 -40 -6 -14 -7 -15 -1 0
-20 -13 -5 -37 -36 -10 -2 -22 -21 -1 -15 -14 -7 -6 -40 0
-36 -37 -5 -13 -20 -40 -6 -14 -21 -7 -15 -22 -1 -2 -10 0
-36 -21 -14 -6 -40 -20 -13 -5 -37 -10 -2 -22 -1 -15 -7 0
-40 -6 -14 -21 -36 -7 -15 -22 -37 -1 -2 -5 -10 -13 -20 0
-7 -15 -22 -37 -40 -1 -2 -5 -6 -10 -13 -14 -20 -21 -36 0
-40 -37 -22 -15 -7 -36 -21 -14 -6 -20 -13 -5 -10 -2 -1 0
-1 -2 -5 -6 -8 -10 -13 -14 -16 -20 -21 -23 -36 -38 -41 0
-8 -6 -5 -2 -1 -41 -38 -23 -16 -36 -21 -14 -20 -13 -10 0
-1 -16 -14 -13 -10 -8 -6 -5 -2 -41 -38 -23 -36 -21 -20 0
-10 -13 -14 -16 -1 -20 -21 -23 -2 -36 -38 -5 -41 -6 -8 0
-10 -2 -23 -21 -20 -1 -16 -14 -13 -8 -6 -5 -41 -38 -36 0
-20 -21 -23 -2 -10 -36 -38 -5 -13 -41 -6 -14 -8 -16 -1 0
-20 -13 -5 -38 -36 -10 -2 -23 -21 -1 -16 -14 -8 -6 -41 0
-36 -38 -5 -13 -20 -41 -6 -14 -21 -8 -16 -23 -1 -2 -10 0
-36 -21 -14 -6 -41 -20 -13 -5 -38 -10 -2 -23 -1 -16 -8 0
-41 -6 -14 -21 -36 -8 -16 -23 -38 -1 -2 -5 -10 -13 -20 0
-8 -16 -23 -38 -41 -1 -2 -5 -6 -10 -13 -14 -20 -21 -36 0
-41 -38 -23 -16 -8 -36 -21 -14 -6 -20 -13 -5 -10 -2 -1 0
-1 -2 -5 -6 -9 -10 -13 -14 -17 -20 -21 -24 -36 -39 -42 0
-9 -6 -5 -2 -1 -42 -39 -24 -17 -36 -21 -14 -20 -13 -10 0
-1 -17 -14 -13 -10 -9 -6 -5 -2 -42 -39 -24 -36 -21 -20 0
-10 -13 -14 -17 -1 -20 -21 -24 -2 -36 -39 -5 -42 -6 -9 0
-10 -2 -24 -21 -20 -1 -17 -14 -13 -9 -6 -5 -42 -39 -36 0
-20 -21 -24 -2 -10 -36 -39 -5 -13 -42 -6 -14 -9 -17 -1 0
-20 -13 -5 -39 -36 -10 -2 -24 -21 -1 -17 -14 -9 -6 -42 0
-36 -39 -5 -13 -20 -42 -6 -14 -21 -9 -17 -24 -1 -2 -10 0
-36 -21 -14 -6 -42 -20 -13 -5 -39 -10 -2 -24 -1 -17 -9 0
-42 -6 -14 -21 -36 -9 -17 -24 -39 -1 -2 -5 -10 -13 -20 0
-9 -17 -24 -39 -42 -1 -2 -5 -6 -10 -13 -14 -20 -21 -36 0
-42 -39 -24 -17 -9 -36 -21 -14 -6 -20 -13 -5 -10 -2 -1 0
-1 -2 -5 -7 -8 -10 -13 -15 -16 -20 -22 -23 -37 -38 -43 0
-8 -7 -5 -2 -1 -43 -38 -23 -16 -37 -22 -15 -20 -13 -10 0
-1 -16 -15 -13 -10 -8 -7 -5 -2 -43 -38 -23 -37 -22 -20 0
-10 -13 -15 -16 -1 -20 -22 -23 -2 -37 -38 -5 -43 -7 -8 0
-10 -2 -23 -22 -20 -1 -16 -15 -13 -8 -7 -5 -43 -38 -37 0
-20 -22 -23 -2 -10 -37 -38 -5 -13 -43 -7 -15 -8 -16 -1 0
-20 -13 -5 -38 -37 -10 -2 -23 -22 -1 -16 -15 -8 -7 -43 0
-37 -38 -5 -13 -20 -43 -7 -15 -22 -8 -16 -23 -1 -2 -10 0
-37 -22 -15 -7 -43 -20 -13 -5 -38 -10 -2 -23 -1 -16 -8 0
-43 -7 -15 -22 -37 -8 -16 -23 -38 -1 -2 -5 -10 -13 -20 0
-8 -16 -23 -38 -43 -1 -2 -5 -7 -10 -13 -15 -20 -22 -37 0
-43 -38 -23 -16 -8 -37 -22 -15 -7 -20 -13 -5 -10 -2 -1 0
-1 -2 -5 -7 -9 -10 -13 -15 -17 -20 -22 -24 -37 -39 -44 0
-9 -7 -5 -2 -1 -44 -39 -24 -17 -37 -22 -15 -20 -13 -10 0
-1 -17 -15 -13 -10 -9 -7 -5 -2 -44 -39 -24 -37 -22 -20 0
-10 -13 -15 -17 -1 -20 -22 -24 -2 -37 -39 -5 -44 -7 -9 0
-10 -2 -24 -22 -20 -1 -17 -15 -13 -9 -7 -5 -44 -39 -37 0
-20 -22 -24 -2 -10 -37 -39 -5 -13 -44 -7 -15 -9 -17 -1 0
-20 -13 -5 -39 -37 -10 -2 -24 -22 -1 -17 -15 -9 -7 -44 0
-37 -39 -5 -13 -20 -44 -7 -15 -22 -9 -17 -24 -1 -2 -10 0
-37 -22 -15 -7 -44 -20 -13 -5 -39 -10 -2 -24 -1 -17 -9 0
-44 -7 -15 -22 -37 -9 -17 -24 -39 -1 -2 -5 -10 -13 -20 0
-9 -17 -24 -39 -44 -1 -2 -5 -7 -10 -13 -15 -20 -22 -37 0
-44 -39 -24 -17 -9 -37 -22 -15 -7 -20 -13 -5 -10 -2 -1 0
-1 -2 -5 -8 -9 -10 -13 -16 -17 -20 -23 -24 -38 -39 -45 0
-9 -8 -5 -2 -1 -45 -39 -24 -17 -38 -23 -16 -20 -13 -10 0
-1 -17 -16 -13 -10 -9 -8 -5 -2 -45 -39 -24 -38 -23 -20 0
-10 -13 -16 -17 -1 -20 -23 -24 -2 -38 -39 -5 -45 -8 -9 0
-10 -2 -24 -23 -20 -1 -17 -16 -13 -9 -8 -5 -45 -39 -38 0
-20 -23 -24 -2 -10 -38 -39 -5 -13 -45 -8 -16 -9 -17 -1 0
-20 -13 -5 -39 -38 -10 -2 -24 -23 -1 -17 -16 -9 -8 -45 0
-38 -39 -5 -13 -20 -45 -8 -16 -23 -9 -17 -24 -1 -2 -10 0
-38 -23 -16 -8 -45 -20 -13 -5 -39 -10 -2 -24 -1 -17 -9 0
-45 -8 -16 -23 -38 -9 -17 -24 -39 -1 -2 -5 -10 -13 -20 0
-9 -17 -24 -39 -45 -1 -2 -5 -8 -10 -13 -16 -20 -23 -38 0
-45 -39 -24 -17 -9 -38 -23 -16 -8 -20 -13 -5 -10 -2 -1 0
-1 -2 -6 -7 -8 -10 -14 -15 -16 -21 -22 -23 -40 -41 -43 0
-8 -7 -6 -2 -1 -43 -41 -23 -16 -40 -22 -15 -21 -14 -10 0
-1 -16 -15 -14 -10 -8 -7 -6 -2 -43 -41 -23 -40 -22 -21 0
-10 -14 -15 -16 -1 -21 -22 -23 -2 -40 -41 -6 -43 -7 -8 0
-10 -2 -23 -22 -21 -1 -16 -15 -14 -8 -7 -6 -43 -41 -40 0
-21 -22 -23 -2 -10 -40 -41 -6 -14 -43 -7 -15 -8 -16 -1 0
-21 -14 -6 -41 -40 -10 -2 -23 -22 -1 -16 -15 -8 -7 -43 0
-40 -41 -6 -14 -21 -43 -7 -15 -22 -8 -16 -23 -1 -2 -10 0
-40 -22 -15 -7 -43 -21 -14 -6 -41 -10 -2 -23 -1 -16 -8 0
-43 -7 -15 -22 -40 -8 -16 -23 -41 -1 -2 -6 -10 -14 -21 0
-8 -16 -23 -41 -43 -1 -2 -6 -7 -10 -14 -15 -21 -22 -40 0
-43 -41 -23 -16 -8 -40 -22 -15 -7 -21 -14 -6 -10 -2 -1 0
-1 -2 -6 -7 -9 -10 -14 -15 -17 -21 -22 -24 -40 -42 -44 0
-9 -7 -6 -2 -1 -44 -42 -24 -17 -40 -22 -15 -21 -14 -10 0
-1 -17 -15 -14 -10 -9 -7 -6 -2 -44 -42 -24 -40 -22 -21 0
-10 -14 -15 -17 -1 -21 -22 -24 -2 -40 -42 -6 -44 -7 -9 0
-10 -2 -24 -22 -21 -1 -17 -15 -14 -9 -7 -6 -44 -42 -40 0
-21 -22 -24 -2 -10 -40 -42 -6 -14 -44 -7 -15 -9 -17 -1 0
-21 -14 -6 -42 -40 -10 -2 -24 -22 -1 -17 -15 -9 -7 -44 0
-40 -42 -6 -14 -21 -44 -7 -15 -22 -9 -17 -24 -1 -2 -10 0
-40 -22 -15 -7 -44 -21 -14 -6 -42 -10 -2 -24 -1 -17 -9 0
-44 -7 -15 -22 -40 -9 -17 -24 -42 -1 -2 -6 -10 -14 -21 0
-9 -17 -24 -42 -44 -1 -2 -6 -7 -10 -14 -15 -21 -22 -40 0
-44 -42 -24 -17 -9 -40 -22 -15 -7 -21 -14 -6 -10 -2 -1 0
-1 -2 -6 -8 -9 -10 -14 -16 -17 -21 -23 -24 -41 -42 -45 0
-9 -8 -6 -2 -1 -45 -42 -24 -17 -41 -23 -16 -21 -14 -10 0
-1 -17 -16 -14 -10 -9 -8 -6 -2 -45 -42 -24 -41 -23 -21 0
-10 -14 -16 -17 -1 -21 -23 -24 -2 -41 -42 -6 -45 -8 -9 0
-10 -2 -24 -23 -21 -1 -17 -16 -14 -9 -8 -6 -45 -42 -41 0
-21 -23 -24 -2 -10 -41 -42 -6 -14 -45 -8 -16 -9 -17 -1 0
-21 -14 -6 -42 -41 -10 -2 -24 -23 -1 -17 -16 -9 -8 -45 0
-41 -42 -6 -14 -21 -45 -8 -16 -23 -9 -17 -24 -1 -2 -10 0
-41 -23 -16 -8 -45 -21 -14 -6 -42 -10 -2 -24 -1 -17 -9 0
-45 -8 -16 -23 -41 -9 -17 -24 -42 -1 -2 -6 -10 -14 -21 0
-9 -17 -24 -42 -45 -1 -2 -6 -8 -10 -14 -16 -21 -23 -41 0
-45 -42 -24 -17 -9 -41 -23 -16 -8 -21 -14 -6 -10 -2 -1 0
-1 -2 -7 -8 -9 -10 -15 -16 -17 -22 -23 -24 -43 -44 -45 0
-9 -8 -7 -2 -1 -45 -44 -24 -17 -43 -23 -16 -22 -15 -10 0
-1 -17 -16 -15 -10 -9 -8 -7 -2 -45 -44 -24 -43 -23 -22 0
-10 -15 -16 -17 -1 -22 -23 -24 -2 -43 -44 -7 -45 -8 -9 0
-10 -2 -24 -23 -22 -1 -17 -16 -15 -9 -8 -7 -45 -44 -43 0
-22 -23 -24 -2 -10 -43 -44 -7 -15 -45 -8 -16 -9 -17 -1 0
-22 -15 -7 -44 -43 -10 -2 -24 -23 -1 -17 -16 -9 -8 -45 0
-43 -44 -7 -15 -22 -45 -8 -16 -23 -9 -17 -24 -1 -2 -10 0
-43 -23 -16 -8 -45 -22 -15 -7 -44 -10 -2 -24 -1 -17 -9 0
-45 -8 -16 -23 -43 -9 -17 -24 -44 -1 -2 -7 -10 -15 -22 0
-9 -17 -24 -44 -45 -1 -2 -7 -8 -10 -15 -16 -22 -23 -43 0
-45 -44 -24 -17 -9 -43 -23 -16 -8 -22 -15 -7 -10 -2 -1 0
-1 -3 -4 -5 -6 -11 -12 -13 -14 -25 -26 -27 -31 -32 -36 0
-6 -5 -4 -3 -1 -36 -32 -27 -14 -31 -26 -13 -25 -12 -11 0
-1 -14 -13 -12 -11 -6 -5 -4 -3 -36 -32 -27 -31 -26 -25 0
-11 -12 -13 -14 -1 -25 -26 -27 -3 -31 -32 -4 -36 -5 -6 0
-11 -3 -27 -26 -25 -1 -14 -13 -12 -6 -5 -4 -36 -32 -31 0
-25 -26 -27 -3 -11 -31 -32 -4 -12 -36 -5 -13 -6 -14 -1 0
-25 -12 -4 -32 -31 -11 -3 -27 -26 -1 -14 -13 -6 -5 -36 0
-31 -32 -4 -12 -25 -36 -5 -13 -26 -6 -14 -27 -1 -3 -11 0
-31 -26 -13 -5 -36 -25 -12 -4 -32 -11 -3 -27 -1 -14 -6 0
-36 -5 -13 -26 -31 -6 -14 -27 -32 -1 -3 -4 -11 -12 -25 0
-6 -14 -27 -32 -36 -1 -3 -4 -5 -11 -12 -13 -25 -26 -31 0
-36 -32 -27 -14 -6 -31 -26 -13 -5 -25 -12 -4 -11 -3 -1 0
-1 -3 -4 -5 -7 -11 -12 -13 -15 -25 -26 -28 -31 -33 -37 0
-7 -5 -4 -3 -1 -37 -33 -28 -15 -31 -26 -13 -25 -12 -11 0
-1 -15 -13 -12 -11 -7 -5 -4 -3 -37 -33 -28 -31 -26 -25 0
-11 -12 -13 -15 -1 -25 -26 -28 -3 -31 -33 -4 -37 -5 -7 0
-11 -3 -28 -26 -25 -1 -15 -13 -12 -7 -5 -4 -37 -33 -31 0
-25 -26 -28 -3 -11 -31 -33 -4 -12 -37 -5 -13 -7 -15 -1 0
-25 -12 -4 -33 -31 -11 -3 -28 -26 -1 -15 -13 -7 -5 -37 0
-31 -33 -4 -12 -25 -37 -5 -13 -26 -7 -15 -28 -1 -3 -11 0
-31 -26 -13 -5 -37 -25 -12 -4 -33 -11 -3 -28 -1 -15 -7 0
-37 -5 -13 -26 -31 -7 -15 -28 -33 -1 -3 -4 -11 -12 -25 0
-7 -15 -28 -33 -37 -1 -3 -4 -5 -11 -12 -13 -25 -26 -31 0
-37 -33 -28 -15 -7 -31 -26 -13 -5 -25 -12 -4 -11 -3 -1 0
-1 -3 -4 -5 -8 -11 -12 -13 -16 -25 -26 -29 -31 -34 -38 0
-8 -5 -4 -3 -1 -38 -34 -29 -16 -31 -26 -13 -25 -12 -11 0
-1 -16 -13 -12 -11 -8 -5 -4 -3 -38 -34 -29 -31 -26 -25 0
-11 -12 -13 -16 -1 -25 -26 -29 -3 -31 -34 -4 -38 -5 -8 0
-11 -3 -29 -26 -25 -1 -16 -13 -12 -8 -5 -4 -38 -34 -31 0
-25 -26 -29 -3 -11 -31 -34 -4 -12 -38 -5 -13 -8 -16 -1 0
-25 -12 -4 -34 -31 -11 -3 -29 -26 -1 -16 -13 -8 -5 -38 0
-31 -34 -4 -12 -25 -38 -5 -13 -26 -8 -16 -29 -1 -3 -11 0
-31 -26 -13 -5 -38 -25 -12 -4 -34 -11 -3 -29 -1 -16 -8 0
-38 -5 -13 -26 -31 -8 -16 -29 -34 -1 -3 -4 -11 -12 -25 0
-8 -16 -29 -34 -38 -1 -3 -4 -5 -11 -12 -13 -25 -26 -31 0
-38 -34 -29 -16 -8 -31 -26 -13 -5 -25 -12 -4 -11 -3 -1 0
-1 -3 -4 -5 -9 -11 -12 -13 -17 -25 -26 -30 -31 -35 -39 0
-9 -5 -4 -3 -1 -39 -35 -30 -17 -31 -26 -13 -25 -12 -11 0
-1 -17 -13 -12 -11 -9 -5 -4 -3 -39 -35 -30 -31 -26 -25 0
-11 -12 -13 -17 -1 -25 -26 -30 -3 -31 -35 -4 -39 -5 -9 0
-11 -3 -30 -26 -25 -1 -17 -13 -12 -9 -5 -4 -39 -35 -31 0
-25 -26 -30 -3 -11 -31 -35 -4 -12 -39 -5 -13 -9 -17 -1 0
-25 -12 -4 -35 -31 -11 -3 -30 -26 -1 -17 -13 -9 -5 -39 0
-31 -35 -4 -12 -25 -39 -5 -13 -26 -9 -17 -30 -1 -3 -11 0
-31 -26 -13 -5 -39 -25 -12 -4 -35 -11 -3 -30 -1 -17 -9 0
-39 -5 -13 -26 -31 -9 -17 -30 -35 -1 -3 -4 -11 -12 -25 0
-9 -17 -30 -35 -39 -1 -3 -4 -5 -11 -12 -13 -25 -26 -31 0
-39 -35 -30 -17 -9 -31 -26 -13 -5 -25 -12 -4 -11 -3 -1 0
-1 -3 -4 -6 -7 -11 -12 -14 -15 -25 -27 -28 -32 -33 -40 0
-7 -6 -4 -3 -1 -40 -33 -28 -15 -32 -27 -14 -25 -12 -11 0
-1 -15 -14 -12 -11 -7 -6 -4 -3 -40 -33 -28 -32 -27 -25 0
-11 -12 -14 -15 -1 -25 -27 -28 -3 -32 -33 -4 -40 -6 -7 0
-11 -3 -28 -27 -25 -1 -15 -14 -12 -7 -6 -4 -40 -33 -32 0
-25 -27 -28 -3 -11 -32 -33 -4 -12 -40 -6 -14 -7 -15 -1 0
-25 -12 -4 -33 -32 -11 -3 -28 -27 -1 -15 -14 -7 -6 -40 0
-32 -33 -4 -12 -25 -40 -6 -14 -27 -7 -15 -28 -1 -3 -11 0
-32 -27 -14 -6 -40 -25 -12 -4 -33 -11 -3 -28 -1 -15 -7 0
-40 -6 -14 -27 -32 -7 -15 -28 -33 -1 -3 -4 -11 -12 -25 0
-7 -15 -28 -33 -40 -1 -3 -4 -6 -11 -12 -14 -25 -27 -32 0
-40 -33 -28 -15 -7 -32 -27 -14 -6 -25 -12 -4 -11 -3 -1 0
-1 -3 -4 -6 -8 -11 -12 -14 -16 -25 -27 -29 -32 -34 -41 0
-8 -6 -4 -3 -1 -41 -34 -29 -16 -32 -27 -14 -25 -12 -11 0
-1 -16 -14 -12 -11 -8 -6 -4 -3 -41 -34 -29 -32 -27 -25 0
-11 -12 -14 -16 -1 -25 -27 -29 -3 -32 -34 -4 -41 -6 -8 0
-11 -3 -29 -27 -25 -1 -16 -14 -12 -8 -6 -4 -41 -34 -32 0
-25 -27 -29 -3 -11 -32 -34 -4 -12 -41 -6 -14 -8 -16 -1 0
-25 -12 -4 -34 -32 -11 -3 -29 -27 -1 -16 -14 -8 -6 -41 0
-32 -34 -4 -12 -25 -41 -6 -14 -27 -8 -16 -29 -1 -3 -11 0
-32 -27 -14 -6 -41 -25 -12 -4 -34 -11 -3 -29 -1 -16 -8 0
-41 -6 -14 -27 -32 -8 -16 -29 -34 -1 -3 -4 -11 -12 -25 0
-8 -16 -29 -34 -41 -1 -3 -4 -6 -11 -12 -14 -25 -27 -32 0
-41 -34 -29 -16 -8 -32 -27 -14 -6 -25 -12 -4 -11 -3 -1 0
-1 -3 -4 -6 -9 -11 -12 -14 -17 -25 -27 -30 -32 -35 -42 0
-9 -6 -4 -3 -1 -42 -35 -30 -17 -32 -27 -14 -25 -12 -11 0
-1 -17 -14 -12 -11 -9 -6 -4 -3 -42 -35 -30 -32 -27 -25 0
-11 -12 -14 -17 -1 -25 -27 -30 -3 -32 -35 -4 -42 -6 -9 0
-11 -3 -30 -27 -25 -1 -17 -14 -12 -9 -6 -4 -42 -35 -32 0
-25 -27 -30 -3 -11 -32 -35 -4 -12 -42 -6 -14 -9 -17 -1 0
-25 -12 -4 -35 -32 -11 -3 -30 -27 -1 -17 -14 -9 -6 -42 0
-32 -35 -4 -12 -25 -42 -6 -14 -27 -9 -17 -30 -1 -3 -11 0
-32 -27 -14 -6 -42 -25 -12 -4 -35 -11 -3 -30 -1 -17 -9 0
-42 -6 -14 -27 -32 -9 -17 -30 -35 -1 -3 -4 -11 -12 -25 0
-9 -17 -30 -35 -42 -1 -3 -4 -6 -11 -12 -14 -25 -27 -32 0
-42 -35 -30 -17 -9 -32 -27 -14 -6 -25 -12 -4 -11 -3 -1 0
-1 -3 -4 -7 -8 -11 -12 -15 -16 -25 -28 -29 -33 -34 -43 0
-8 -7 -4 -3 -1 -43 -34 -29 -16 -33 -28 -15 -25 -12 -11 0
-1 -16 -15 -12 -11 -8 -7 -4 -3 -43 -34 -29 -33 -28 -25 0
-11 -12 -15 -16 -1 -25 -28 -29 -3 -33 -34 -4 -43 -7 -8 0
-11 -3 -29 -28 -25 -1 -16 -15 -12 -8 -7 -4 -43 -34 -33 0
-25 -28 -29 -3 -11 -33 -34 -4 -12 -43 -7 -15 -8 -16 -1 0
-25 -12 -4 -34 -33 -11 -3 -29 -28 -1 -16 -15 -8 -7 -43 0
-33 -34 -4 -12 -25 -43 -7 -15 -28 -8 -16 -29 -1 -3 -11 0
-33 -28 -15 -7 -43 -25 -12 -4 -34 -11 -3 -29 -1 -16 -8 0
-43 -7 -15 -28 -33 -8 -16 -29 -34 -1 -3 -4 -11 -12 -25 0
-8 -16 -29 -34 -43 -1 -3 -4 -7 -11 -12 -15 -25 -28 -33 0
-43 -34 -29 -16 -8 -33 -28 -15 -7 -25 -12 -4 -11 -3 -1 0
-1 -3 -4 -7 -9 -11 -12 -15 -17 -25 -28 -30 -33 -35 -44 0
-9 -7 -4 -3 -1 -44 -35 -30 -17 -33 -28 -15 -25 -12 -11 0
-1 -17 -15 -12 -11 -9 -7 -4 -3 -44 -35 -30 -33 -28 -25 0
-11 -12 -15 -17 -1 -25 -28 -30 -3 -33 -35 -4 -44 -7 -9 0
-11 -3 -30 -28 -25 -1 -17 -15 -12 -9 -7 -4 -44 -35 -33 0
-25 -28 -30 -3 -11 -33 -35 -4 -12 -44 -7 -15 -9 -17 -1 0
-25 -12 -4 -35 -33 -11 -3 -30 -28 -1 -17 -15 -9 -7 -44 0
-33 -35 -4 -12 -25 -44 -7 -15 -28 -9 -17 -30 -1 -3 -11 0
-33 -28 -15 -7 -44 -25 -12 -4 -35 -11 -3 -30 -1 -17 -9 0
-44 -7 -15 -28 -33 -9 -17 -30 -35 -1 -3 -4 -11 -12 -25 0
-9 -17 -30 -35 -44 -1 -3 -4 -7 -11 -12 -15 -25 -28 -33 0
-44 -35 -30 -17 -9 -33 -28 -15 -7 -25 -12 -4 -11 -3 -1 0
-1 -3 -4 -8 -9 -11 -12 -16 -17 -25 -29 -30 -34 -35 -45 0
-9 -8 -4 -3 -1 -45 -35 -30 -17 -34 -29 -16 -25 -12 -11 0
-1 -17 -16 -12 -11 -9 -8 -4 -3 -45 -35 -30 -34 -29 -25 0
-11 -12 -16 -17 -1 -25 -29 -30 -3 -34 -35 -4 -45 -8 -9 0
-11 -3 -30 -29 -25 -1 -17 -16 -12 -9 -8 -4 -45 -35 -34 0
-25 -29 -30 -3 -11 -34 -35 -4 -12 -45 -8 -16 -9 -17 -1 0
-25 -12 -4 -35 -34 -11 -3 -30 -29 -1 -17 -16 -9 -8 -45 0
-34 -35 -4 -12 -25 -45 -8 -16 -29 -9 -17 -30 -1 -3 -11 0
-34 -29 -16 -8 -45 -25 -12 -4 -35 -11 -3 -30 -1 -17 -9 0
-45 -8 -16 -29 -34 -9 -17 -30 -35 -1 -3 -4 -11 -12 -25 0
-9 -17 -30 -35 -45 -1 -3 -4 -8 -11 -12 -16 -25 -29 -34 0
-45 -35 -30 -17 -9 -34 -29 -16 -8 -25 -12 -4 -11 -3 -1 0
-1 -3 -5 -6 -7 -11 -13 -14 -15 -26 -27 -28 -36 -37 -40 0
-7 -6 -5 -3 -1 -40 -37 -28 -15 -36 -27 -14 -26 -13 -11 0
-1 -15 -14 -13 -11 -7 -6 -5 -3 -40 -37 -28 -36 -27 -26 0
-11 -13 -14 -15 -1 -26 -27 -28 -3 -36 -37 -5 -40 -6 -7 0
-11 -3 -28 -27 -26 -1 -15 -14 -13 -7 -6 -5 -40 -37 -36 0
-26 -27 -28 -3 -11 -36 -37 -5 -13 -40 -6 -14 -7 -15 -1 0
-26 -13 -5 -37 -36 -11 -3 -28 -27 -1 -15 -14 -7 -6 -40 0
-36 -37 -5 -13 -26 -40 -6 -14 -27 -7 -15 -28 -1 -3 -11 0
-36 -27 -14 -6 -40 -26 -13 -5 -37 -11 -3 -28 -1 -15 -7 0
-40 -6 -14 -27 -36 -7 -15 -28 -37 -1 -3 -5 -11 -13 -26 0
-7 -15 -28 -37 -40 -1 -3 -5 -6 -11 -13 -14 -26 -27 -36 0
-40 -37 -28 -15 -7 -36 -27 -14 -6 -26 -13 -5 -11 -3 -1 0
-1 -3 -5 -6 -8 -11 -13 -14 -16 -26 -27 -29 -36 -38 -41 0
-8 -6 -5 -3 -1 -41 -38 -29 -16 -36 -27 -14 -26 -13 -11 0
-1 -16 -14 -13 -11 -8 -6 -5 -3 -41 -38 -29 -36 -27 -26 0
-11 -13 -14 -16 -1 -26 -27 -29 -3 -36 -38 -5 -41 -6 -8 0
-11 -3 -29 -27 -26 -1 -16 -14 -13 -8 -6 -5 -41 -38 -36 0
-26 -27 -29 -3 -11 -36 -38 -5 -13 -41 -6 -14 -8 -16 -1 0
-26 -13 -5 -38 -36 -11 -3 -29 -27 -1 -16 -14 -8 -6 -41 0
-36 -38 -5 -13 -26 -41 -6 -14 -27 -8 -16 -29 -1 -3 -11 0
-36 -27 -14 -6 -41 -26 -13 -5 -38 -11 -3 -29 -1 -16 -8 0
-41 -6 -14 -27 -36 -8 -16 -29 -38 -1 -3 -5 -11 -13 -26 0
-8 -16 -29 -38 -41 -1 -3 -5 -6 -11 -13 -14 -26 -27 -36 0
-41 -38 -29 -16 -8 -36 -27 -14 -6 -26 -13 -5 -11 -3 -1 0
-1 -3 -5 -6 -9 -11 -13 -14 -17 -26 -27 -30 -36 -39 -42 0
-9 -6 -5 -3 -1 -42 -39 -30 -17 -36 -27 -14 -26 -13 -11 0
-1 -17 -14 -13 -11 -9 -6 -5 -3 -42 -39 -30 -36 -27 -26 0
-11 -13 -14 -17 -1 -26 -27 -30 -3 -36 -39 -5 -42 -6 -9 0
-11 -3 -30 -27 -26 -1 -17 -14 -13 -9 -6 -5 -42 -39 -36 0
-26 -27 -30 -3 -11 -36 -39 -5 -13 -42 -6 -14 -9 -17 -1 0
-26 -13 -5 -39 -36 -11 -3 -30 -27 -1 -17 -14 -9 -6 -42 0
-36 -39 -5 -13 -26 -42 -6 -14 -27 -9 -17 -30 -1 -3 -11 0
-36 -27 -14 -6 -42 -26 -13 -5 -39 -11 -3 -30 -1 -17 -9 0
-42 -6 -14 -27 -36 -9 -17 -30 -39 -1 -3 -5 -11 -13 -26 0
-9 -17 -30 -39 -42 -1 -3 -5 -6 -11 -13 -14 -26 -27 -36 0
-42 -39 -30 -17 -9 -36 -27 -14 -6 -26 -13 -5 -11 -3 -1 0
-1 -3 -5 -7 -8 -11 -13 -15 -16 -26 -28 -29 -37 -38 -43 0
-8 -7 -5 -3 -1 -43 -38 -29 -16 -37 -28 -15 -26 -13 -11 0
-1 -16 -15 -13 -11 -8 -7 -5 -3 -43 -38 -29 -37 -28 -26 0
-11 -13 -15 -16 -1 -26 -28 -29 -3 -37 -38 -5 -43 -7 -8 0
-11 -3 -29 -28 -26 -1 -16 -15 -13 -8 -7 -5 -43 -38 -37 0
-26 -28 -29 -3 -11 -37 -38 -5 -13 -43 -7 -15 -8 -16 -1 0
-26 -13 -5 -38 -37 -11 -3 -29 -28 -1 -16 -15 -8 -7 -43 0
-37 -38 -5 -13 -26 -43 -7 -15 -28 -8 -16 -29 -1 -3 -11 0
-37 -28 -15 -7 -43 -26 -13 -5 -38 -11 -3 -29 -1 -16 -8 0
-43 -7 -15 -28 -37 -8 -16 -29 -38 -1 -3 -5 -11 -13 -26 0
-8 -16 -29 -38 -43 -1 -3 -5 -7 -11 -13 -15 -26 -28 -37 0
-43 -38 -29 -16 -8 -37 -28 -15 -7 -26 -13 -5 -11 -3 -1 0
-1 -3 -5 -7 -9 -11 -13 -15 -17 -26 -28 -30 -37 -39 -44 0
-9 -7 -5 -3 -1 -44 -39 -30 -17 -37 -28 -15 -26 -13 -11 0
-1 -17 -15 -13 -11 -9 -7 -5 -3 -44 -39 -30 -37 -28 -26 0
-11 -13 -15 -17 -1 -26 -28 -30 -3 -37 -39 -5 -44 -7 -9 0
-11 -3 -30 -28 -26 -1 -17 -15 -13 -9 -7 -5 -44 -39 -37 0
-26 -28 -30 -3 -11 -37 -39 -5 -13 -44 -7 -15 -9 -17 -1 0
-26 -13 -5 -39 -37 -11 -3 -30 -28 -1 -17 -15 -9 -7 -44 0
-37 -39 -5 -13 -26 -44 -7 -15 -28 -9 -17 -30 -1 -3 -11 0
-37 -28 -15 -7 -44 -26 -13 -5 -39 -11 -3 -30 -1 -17 -9 0
-44 -7 -15 -28 -37 -9 -17 -30 -39 -1 -3 -5 -11 -13 -26 0
-9 -17 -30 -39 -44 -1 -3 -5 -7 -11 -13 -15 -26 -28 -37 0
-44 -39 -30 -17 -9 -37 -28 -15 -7 -26 -13 -5 -11 -3 -1 0
-1 -3 -5 -8 -9 -11 -13 -16 -17 -26 -29 -30 -38 -39 -45 0
-9 -8 -5 -3 -1 -45 -39 -30 -17 -38 -29 -16 -26 -13 -11 0
-1 -17 -16 -13 -11 -9 -8 -5 -3 -45 -39 -30 -38 -29 -26 0
-11 -13 -16 -17 -1 -26 -29 -30 -3 -38 -39 -5 -45 -8 -9 0
-11 -3 -30 -29 -26 -1 -17 -16 -13 -9 -8 -5 -45 -39 -38 0
-26 -29 -30 -3 -11 -38 -39 -5 -13 -45 -8 -16 -9 -17 -1 0
-26 -13 -5 -39 -38 -11 -3 -30 -29 -1 -17 -16 -9 -8 -45 0
-38 -39 -5 -13 -26 -45 -8 -16 -29 -9 -17 -30 -1 -3 -11 0
-38 -29 -16 -8 -45 -26 -13 -5 -39 -11 -3 -30 -1 -17 -9 0
-45 -8 -16 -29 -38 -9 -17 -30 -39 -1 -3 -5 -11 -13 -26 0
-9 -17 -30 -39 -45 -1 -3 -5 -8 -11 -13 -16 -26 -29 -38 0
-45 -39 -30 -17 -9 -38 -29 -16 -8 -26 -13 -5 -11 -3 -1 0
-1 -3 -6 -7 -8 -11 -14 -15 -16 -27 -28 -29 -40 -41 -43 0
-8 -7 -6 -3 -1 -43 -41 -29 -16 -40 -28 -15 -27 -14 -11 0
-1 -16 -15 -14 -11 -8 -7 -6 -3 -43 -41 -29 -40 -28 -27 0
-11 -14 -15 -16 -1 -27 -28 -29 -3 -40 -41 -6 -43 -7 -8 0
-11 -3 -29 -28 -27 -1 -16 -15 -14 -8 -7 -6 -43 -41 -40 0
-27 -28 -29 -3 -11 -40 -41 -6 -14 -43 -7 -15 -8 -16 -1 0
-27 -14 -6 -41 -40 -11 -3 -29 -28 -1 -16 -15 -8 -7 -43 0
-40 -41 -6 -14 -27 -43 -7 -15 -28 -8 -16 -29 -1 -3 -11 0
-40 -28 -15 -7 -43 -27 -14 -6 -41 -11 -3 -29 -1 -16 -8 0
-43 -7 -15 -28 -40 -8 -16 -29 -41 -1 -3 -6 -11 -14 -27 0
-8 -16 -29 -41 -43 -1 -3 -6 -7 -11 -14 -15 -27 -28 -40 0
-43 -41 -29 -16 -8 -40 -28 -15 -7 -27 -14 -6 -11 -3 -1 0
-1 -3 -6 -7 -9 -11 -14 -15 -17 -27 -28 -30 -40 -42 -44 0
-9 -7 -6 -3 -1 -44 -42 -30 -17 -40 -28 -15 -27 -14 -11 0
-1 -17 -15 -14 -11 -9 -7 -6 -3 -44 -42 -30 -40 -28 -27 0
-11 -14 -15 -17 -1 -27 -28 -30 -3 -40 -42 -6 -44 -7 -9 0
-11 -3 -30 -28 -27 -1 -17 -15 -14 -9 -7 -6 -44 -42 -40 0
-27 -28 -30 -3 -11 -40 -42 -6 -14 -44 -7 -15 -9 -17 -1 0
-27 -14 -6 -42 -40 -11 -3 -30 -28 -1 -17 -15 -9 -7 -44 0
-40 -42 -6 -14 -27 -44 -7 -15 -28 -9 -17 -30 -1 -3 -11 0
-40 -28 -15 -7 -44 -27 -14 -6 -42 -11 -3 -30 -1 -17 -9 0
-44 -7 -15 -28 -40 -9 -17 -30 -42 -1 -3 -6 -11 -14 -27 0
-9 -17 -30 -42 -44 -1 -3 -6 -7 -11 -14 -15 -27 -28 -40 0
-44 -42 -30 -17 -9 -40 -28 -15 -7 -27 -14 -6 -11 -3 -1 0
-1 -3 -6 -8 -9 -11 -14 -16 -17 -27 -29 -30 -41 -42 -45 0
-9 -8 -6 -3 -1 -45 -42 -30 -17 -41 -29 -16 -27 -14 -11 0
-1 -17 -16 -14 -11 -9 -8 -6 -3 -45 -42 -30 -41 -29 -27 0
-11 -14 -16 -17 -1 -27 -29 -30 -3 -41 -42 -6 -45 -8 -9 0
-11 -3 -30 -29 -27 -1 -17 -16 -14 -9 -8 -6 -45 -42 -41 0
-27 -29 -30 -3 -11 -41 -42 -6 -14 -45 -8 -16 -9 -17 -1 0
-27 -14 -6 -42 -41 -11 -3 -30 -29 -1 -17 -16 -9 -8 -45 0
-41 -42 -6 -14 -27 -45 -8 -16 -29 -9 -17 -30 -1 -3 -11 0
-41 -29 -16 -8 -45 -27 -14 -6 -42 -11 -3 -30 -1 -17 -9 0
-45 -8 -16 -29 -41 -9 -17 -30 -42 -1 -3 -6 -11 -14 -27 0
-9 -17 -30 -42 -45 -1 -3 -6 -8 -11 -14 -16 -27 -29 -41 0
-45 -42 -30 -17 -9 -41 -29 -16 -8 -27 -14 -6 -11 -3 -1 0
-1 -3 -7 -8 -9 -11 -15 -16 -17 -28 -29 -30 -43 -44 -45 0
-9 -8 -7 -3 -1 -45 -44 -30 -17 -43 -29 -16 -28 -15 -11 0
-1 -17 -16 -15 -11 -9 -8 -7 -3 -45 -44 -30 -43 -29 -28 0
-11 -15 -16 -17 -1 -28 -29 -30 -3 -43 -44 -7 -45 -8 -9 0
-11 -3 -30 -29 -28 -1 -17 -16 -15 -9 -8 -7 -45 -44 -43 0
-28 -29 -30 -3 -11 -43 -44 -7 -15 -45 -8 -16 -9 -17 -1 0
-28 -15 -7 -44 -43 -11 -3 -30 -29 -1 -17 -16 -9 -8 -45 0
-43 -44 -7 -15 -28 -45 -8 -16 -29 -9 -17 -30 -1 -3 -11 0
-43 -29 -16 -8 -45 -28 -15 -7 -44 -11 -3 -30 -1 -17 -9 0
-45 -8 -16 -29 -43 -9 -17 -30 -44 -1 -3 -7 -11 -15 -28 0
-9 -17 -30 -44 -45 -1 -3 -7 -8 -11 -15 -16 -28 -29 -43 0
-45 -44 -30 -17 -9 -43 -29 -16 -8 -28 -15 -7 -11 -3 -1 0
-1 -4 -5 -6 -7 -12 -13 -14 -15 -31 -32 -33 -36 -37 -40 0
-7 -6 -5 -4 -1 -40 -37 -33 -15 -36 -32 -14 -31 -13 -12 0
-1 -15 -14 -13 -12 -7 -6 -5 -4 -40 -37 -33 -36 -32 -31 0
-12 -13 -14 -15 -1 -31 -32 -33 -4 -36 -37 -5 -40 -6 -7 0
-12 -4 -33 -32 -31 -1 -15 -14 -13 -7 -6 -5 -40 -37 -36 0
-31 -32 -33 -4 -12 -36 -37 -5 -13 -40 -6 -14 -7 -15 -1 0
-31 -13 -5 -37 -36 -12 -4 -33 -32 -1 -15 -14 -7 -6 -40 0
-36 -37 -5 -13 -31 -40 -6 -14 -32 -7 -15 -33 -1 -4 -12 0
-36 -32 -14 -6 -40 -31 -13 -5 -37 -12 -4 -33 -1 -15 -7 0
-40 -6 -14 -32 -36 -7 -15 -33 -37 -1 -4 -5 -12 -13 -31 0
-7 -15 -33 -37 -40 -1 -4 -5 -6 -12 -13 -14 -31 -32 -36 0
-40 -37 -33 -15 -7 -36 -32 -14 -6 -31 -13 -5 -12 -4 -1 0
-1 -4 -5 -6 -8 -12 -13 -14 -16 -31 -32 -34 -36 -38 -41 0
-8 -6 -5 -4 -1 -41 -38 -34 -16 -36 -32 -14 -31 -13 -12 0
-1 -16 -14 -13 -12 -8 -6 -5 -4 -41 -38 -34 -36 -32 -31 0
-12 -13 -14 -16 -1 -31 -32 -34 -4 -36 -38 -5 -41 -6 -8 0
-12 -4 -34 -32 -31 -1 -16 -14 -13 -8 -6 -5 -41 -38 -36 0
-31 -32 -34 -4 -12 -36 -38 -5 -13 -41 -6 -14 -8 -16 -1 0
-31 -13 -5 -38 -36 -12 -4 -34 -32 -1 -16 -14 -8 -6 -41 0
-36 -38 -5 -13 -31 -41 -6 -14 -32 -8 -16 -34 -1 -4 -12 0
-36 -32 -14 -6 -41 -31 -13 -5 -38 -12 -4 -34 -1 -16 -8 0
-41 -6 -14 -32 -36 -8 -16 -34 -38 -1 -4 -5 -12 -13 -31 0
-8 -16 -34 -38 -41 -1 -4 -5 -6 -12 -13 -14 -31 -32 -36 0
-41 -38 -34 -16 -8 -36 -32 -14 -6 -31 -13 -5 -12 -4 -1 0
-1 -4 -5 -6 -9 -12 -13 -14 -17 -31 -32 -35 -36 -39 -42 0
-9 -6 -5 -4 -1 -42 -39 -35 -17 -36 -32 -14 -31 -13 -12 0
-1 -17 -14 -13 -12 -9 -6 -5 -4 -42 -39 -35 -36 -32 -31 0
-12 -13 -14 -17 -1 -31 -32 -35 -4 -36 -39 -5 -42 -6 -9 0
-12 -4 -35 -32 -31 -1 -17 -14 -13 -9 -6 -5 -42 -39 -36 0
-31 -32 -35 -4 -12 -36 -39 -5 -13 -42 -6 -14 -9 -17 -1 0
-31 -13 -5 -39 -36 -12 -4 -35 -32 -1 -17 -14 -9 -6 -42 0
-36 -39 -5 -13 -31 -42 -6 -14 -32 -9 -17 -35 -1 -4 -12 0
-36 -32 -14 -6 -42 -31 -13 -5 -39 -12 -4 -35 -1 -17 -9 0
-42 -6 -14 -32 -36 -9 -17 -35 -39 -1 -4 -5 -12 -13 -31 0
-9 -17 -35 -39 -42 -1 -4 -5 -6 -12 -13 -14 -31 -32 -36 0
-42 -39 -35 -17 -9 -36 -32 -14 -6 -31 -13 -5 -12 -4 -1 0
-1 -4 -5 -7 -8 -12 -13 -15 -16 -31 -33 -34 -37 -38 -43 0
-8 -7 -5 -4 -1 -43 -38 -34 -16 -37 -33 -15 -31 -13 -12 0
-1 -16 -15 -13 -12 -8 -7 -5 -4 -43 -38 -34 -37 -33 -31 0
-12 -13 -15 -16 -1 -31 -33 -34 -4 -37 -38 -5 -43 -7 -8 0
-12 -4 -34 -33 -31 -1 -16 -15 -13 -8 -7 -5 -43 -38 -37 0
-31 -33 -34 -4 -12 -37 -38 -5 -13 -43 -7 -15 -8 -16 -1 0
-31 -13 -5 -38 -37 -12 -4 -34 -33 -1 -16 -15 -8 -7 -43 0
-37 -38 -5 -13 -31 -43 -7 -15 -33 -8 -16 -34 -1 -4 -12 0
-37 -33 -15 -7 -43 -31 -13 -5 -38 -12 -4 -34 -1 -16 -8 0
-43 -7 -15 -33 -37 -8 -16 -34 -38 -1 -4 -5 -12 -13 -31 0
-8 -16 -34 -38 -43 -1 -4 -5 -7 -12 -13 -15 -31 -33 -37 0
-43 -38 -34 -16 -8 -37 -33 -15 -7 -31 -13 -5 -12 -4 -1 0
-1 -4 -5 -7 -9 -12 -13 -15 -17 -31 -33 -35 -37 -39 -44 0
-9 -7 -5 -4 -1 -44 -39 -35 -17 -37 -33 -15 -31 -13 -12 0
-1 -17 -15 -13 -12 -9 -7 -5 -4 -44 -39 -35 -37 -33 -31 0
-12 -13 -15 -17 -1 -31 -33 -35 -4 -37 -39 -5 -44 -7 -9 0
-12 -4 -35 -33 -31 -1 -17 -15 -13 -9 -7 -5 -44 -39 -37 0
-31 -33 -35 -4 -12 -37 -39 -5 -13 -44 -7 -15 -9 -17 -1 0
-31 -13 -5 -39 -37 -12 -4 -35 -33 -1 -17 -15 -9 -7 -44 0
-37 -39 -5 -13 -31 -44 -7 -15 -33 -9 -17 -35 -1 -4 -12 0
-37 -33 -15 -7 -44 -31 -13 -5 -39 -12 -4 -35 -1 -17 -9 0
-44 -7 -15 -33 -37 -9 -17 -35 -39 -1 -4 -5 -12 -13 -31 0
-9 -17 -35 -39 -44 -1 -4 -5 -7 -12 -13 -15 -31 -33 -37 0
-44 -39 -35 -17 -9 -37 -33 -15 -7 -31 -13 -5 -12 -4 -1 0
-1 -4 -5 -8 -9 -12 -13 -16 -17 -31 -34 -35 -38 -39 -45 0
-9 -8 -5 -4 -1 -45 -39 -35 -17 -38 -34 -16 -31 -13 -12 0
-1 -17 -16 -13 -12 -9 -8 -5 -4 -45 -39 -35 -38 -34 -31 0
-12 -13 -16 -17 -1 -31 -34 -35 -4 -38 -39 -5 -45 -8 -9 0
-12 -4 -35 -34 -31 -1 -17 -16 -13 -9 -8 -5 -45 -39 -38 0
-31 -34 -35 -4 -12 -38 -39 -5 -13 -45 -8 -16 -9 -17 -1 0
-31 -13 -5 -39 -38 -12 -4 -35 -34 -1 -17 -16 -9 -8 -45 0
-38 -39 -5 -13 -31 -45 -8 -16 -34 -9 -17 -35 -1 -4 -12 0
-38 -34 -16 -8 -45 -31 -13 -5 -39 -12 -4 -35 -1 -17 -9 0
-45 -8 -16 -34 -38 -9 -17 -35 -39 -1 -4 -5 -12 -13 -31 0
-9 -17 -35 -39 -45 -1 -4 -5 -8 -12 -13 -16 -31 -34 -38 0
-45 -39 -35 -17 -9 -38 -34 -16 -8 -31 -13 -5 -12 -4 -1 0
-1 -4 -6 -7 -8 -12 -14 -15 -16 -32 -33 -34 -40 -41 -43 0
-8 -7 -6 -4 -1 -43 -41 -34 -16 -40 -33 -15 -32 -14 -12 0
-1 -16 -15 -14 -12 -8 -7 -6 -4 -43 -41 -34 -40 -33 -32 0
-12 -14 -15 -16 -1 -32 -33 -34 -4 -40 -41 -6 -43 -7 -8 0
-12 -4 -34 -33 -32 -1 -16 -15 -14 -8 -7 -6 -43 -41 -40 0
-32 -33 -34 -4 -12 -40 -41 -6 -14 -43 -7 -15 -8 -16 -1 0
-32 -14 -6 -41 -40 -12 -4 -34 -33 -1 -16 -15 -8 -7 -43 0
-40 -41 -6 -14 -32 -43 -7 -15 -33 -8 -16 -34 -1 -4 -12 0
-40 -33 -15 -7 -43 -32 -14 -6 -41 -12 -4 -34 -1 -16 -8 0
-43 -7 -15 -33 -40 -8 -16 -34 -41 -1 -4 -6 -12 -14 -32 0
-8 -16 -34 -41 -43 -1 -4 -6 -7 -12 -14 -15 -32 -33 -40 0
-43 -41 -34 -16 -8 -40 -33 -15 -7 -32 -14 -6 -12 -4 -1 0
-1 -4 -6 -7 -9 -12 -14 -15 -17 -32 -33 -35 -40 -42 -44 0
-9 -7 -6 -4 -1 -44 -42 -35 -17 -40 -33 -15 -32 -14 -12 0
-1 -17 -15 -14 -12 -9 -7 -6 -4 -44 -42 -35 -40 -33 -32 0
-12 -14 -15 -17 -1 -32 -33 -35 -4 -40 -42 -6 -44 -7 -9 0
-12 -4 -35 -33 -32 -1 -17 -15 -14 -9 -7 -6 -44 -42 -40 0
-32 -33 -35 -4 -12 -40 -42 -6 -14 -44 -7 -15 -9 -17 -1 0
-32 -14 -6 -42 -40 -12 -4 -35 -33 -1 -17 -15 -9 -7 -44 0
-40 -42 -6 -14 -32 -44 -7 -15 -33 -9 -17 -35 -1 -4 -12 0
-40 -33 -15 -7 -44 -32 -14 -6 -42 -12 -4 -35 -1 -17 -9 0
-44 -7 -15 -33 -40 -9 -17 -35 -42 -1 -4 -6 -12 -14 -32 0
-9 -17 -35 -42 -44 -1 -4 -6 -7 -12 -14 -15 -32 -33 -40 0
-44 -42 -35 -17 -9 -40 -33 -15 -7 -32 -14 -6 -12 -4 -1 0
-1 -4 -6 -8 -9 -12 -14 -16 -17 -32 -34 -35 -41 -42 -45 0
-9 -8 -6 -4 -1 -45 -42 -35 -17 -41 -34 -16 -32 -14 -12 0
-1 -17 -16 -14 -12 -9 -8 -6 -4 -45 -42 -35 -41 -34 -32 0
-12 -14 -16 -17 -1 -32 -34 -35 -4 -41 -42 -6 -45 -8 -9 0
-12 -4 -35 -34 -32 -1 -17 -16 -14 -9 -8 -6 -45 -42 -41 0
-32 -34 -35 -4 -12 -41 -42 -6 -14 -45 -8 -16 -9 -17 -1 0
-32 -14 -6 -42 -41 -12 -4 -35 -34 -1 -17 -16 -9 -8 -45 0
-41 -42 -6 -14 -32 -45 -8 -16 -34 -9 -17 -35 -1 -4 -12 0
-41 -34 -16 -8 -45 -32 -14 -6 -42 -12 -4 -35 -1 -17 -9 0
-45 -8 -16 -34 -41 -9 -17 -35 -42 -1 -4 -6 -12 -14 -32 0
-9 -17 -35 -42 -45 -1 -4 -6 -8 -12 -14 -16 -32 -34 -41 0
-45 -42 -35 -17 -9 -41 -34 -16 -8 -32 -14 -6 -12 -4 -1 0
-1 -4 -7 -8 -9 -12 -15 -16 -17 -33 -34 -35 -43 -44 -45 0
-9 -8 -7 -4 -1 -45 -44 -35 -17 -43 -34 -16 -33 -15 -12 0
-1 -17 -16 -15 -12 -9 -8 -7 -4 -45 -44 -35 -43 -34 -33 0
-12 -15 -16 -17 -1 -33 -34 -35 -4 -43 -44 -7 -45 -8 -9 0
-12 -4 -35 -34 -33 -1 -17 -16 -15 -9 -8 -7 -45 -44 -43 0
-33 -34 -35 -4 -12 -43 -44 -7 -15 -45 -8 -16 -9 -17 -1 0
-33 -15 -7 -44 -43 -12 -4 -35 -34 -1 -17 -16 -9 -8 -45 0
-43 -44 -7 -15 -33 -45 -8 -16 -34 -9 -17 -35 -1 -4 -12 0
-43 -34 -16 -8 -45 -33 -15 -7 -44 -12 -4 -35 -1 -17 -9 0
-45 -8 -16 -34 -43 -9 -17 -35 -44 -1 -4 -7 -12 -15 -33 0
-9 -17 -35 -44 -45 -1 -4 -7 -8 -12 -15 -16 -33 -34 -43 0
-45 -44 -35 -17 -9 -43 -34 -16 -8 -33 -15 -7 -12 -4 -1 0
-1 -5 -6 -7 -8 -13 -14 -15 -16 -36 -37 -38 -40 -41 -43 0
-8 -7 -6 -5 -1 -43 -41 -38 -16 -40 -37 -15 -36 -14 -13 0
-1 -16 -15 -14 -13 -8 -7 -6 -5 -43 -41 -38 -40 -37 -36 0
-13 -14 -15 -16 -1 -36 -37 -38 -5 -40 -41 -6 -43 -7 -8 0
-13 -5 -38 -37 -36 -1 -16 -15 -14 -8 -7 -6 -43 -41 -40 0
-36 -37 -38 -5 -13 -40 -41 -6 -14 -43 -7 -15 -8 -16 -1 0
-36 -14 -6 -41 -40 -13 -5 -38 -37 -1 -16 -15 -8 -7 -43 0
-40 -41 -6 -14 -36 -43 -7 -15 -37 -8 -16 -38 -1 -5 -13 0
-40 -37 -15 -7 -43 -36 -14 -6 -41 -13 -5 -38 -1 -16 -8 0
-43 -7 -15 -37 -40 -8 -16 -38 -41 -1 -5 -6 -13 -14 -36 0
-8 -16 -38 -41 -43 -1 -5 -6 -7 -13 -14 -15 -36 -37 -40 0
-43 -41 -38 -16 -8 -40 -37 -15 -7 -36 -14 -6 -13 -5 -1 0
-1 -5 -6 -7 -9 -13 -14 -15 -17 -36 -37 -39 -40 -42 -44 0
-9 -7 -6 -5 -1 -44 -42 -39 -17 -40 -37 -15 -36 -14 -13 0
-1 -17 -15 -14 -13 -9 -7 -6 -5 -44 -42 -39 -40 -37 -36 0
-13 -14 -15 -17 -1 -36 -37 -39 -5 -40 -42 -6 -44 -7 -9 0
-13 -5 -39 -37 -36 -1 -17 -15 -14 -9 -7 -6 -44 -42 -40 0
-36 -37 -39 -5 -13 -40 -42 -6 -14 -44 -7 -15 -9 -17 -1 0
-36 -14 -6 -42 -40 -13 -5 -39 -37 -1 -17 -15 -9 -7 -44 0
-40 -42 -6 -14 -36 -44 -7 -15 -37 -9 -17 -39 -1 -5 -13 0
-40 -37 -15 -7 -44 -36 -14 -6 -42 -13 -5 -39 -1 -17 -9 0
-44 -7 -15 -37 -40 -9 -17 -39 -42 -1 -5 -6 -13 -14 -36 0
-9 -17 -39 -42 -44 -1 -5 -6 -7 -13 -14 -15 -36 -37 -40 0
-44 -42 -39 -17 -9 -40 -37 -15 -7 -36 -14 -6 -13 -5 -1 0
-1 -5 -6 -8 -9 -13 -14 -16 -17 -36 -38 -39 -41 -42 -45 0
-9 -8 -6 -5 -1 -45 -42 -39 -17 -41 -38 -16 -36 -14 -13 0
-1 -17 -16 -14 -13 -9 -8 -6 -5 -45 -42 -39 -41 -38 -36 0
-13 -14 -16 -17 -1 -36 -38 -39 -5 -41 -42 -6 -45 -8 -9 0
-13 -5 -39 -38 -36 -1 -17 -16 -14 -9 -8 -6 -45 -42 -41 0
-36 -38 -39 -5 -13 -41 -42 -6 -14 -45 -8 -16 -9 -17 -1 0
-36 -14 -6 -42 -41 -13 -5 -39 -38 -1 -17 -16 -9 -8 -45 0
-41 -42 -6 -14 -36 -45 -8 -16 -38 -9 -17 -39 -1 -5 -13 0
-41 -38 -16 -8 -45 -36 -14 -6 -42 -13 -5 -39 -1 -17 -9 0
-45 -8 -16 -38 -41 -9 -17 -39 -42 -1 -5 -6 -13 -14 -36 0
-9 -17 -39 -42 -45 -1 -5 -6 -8 -13 -14 -16 -36 -38 -41 0
-45 -42 -39 -17 -9 -41 -38 -16 -8 -36 -14 -6 -13 -5 -1 0
-1 -5 -7 -8 -9 -13 -15 -16 -17 -37 -38 -39 -43 -44 -45 0
-9 -8 -7 -5 -1 -45 -44 -39 -17 -43 -38 -16 -37 -15 -13 0
-1 -17 -16 -15 -13 -9 -8 -7 -5 -45 -44 -39 -43 -38 -37 0
-13 -15 -16 -17 -1 -37 -38 -39 -5 -43 -44 -7 -45 -8 -9 0
-13 -5 -39 -38 -37 -1 -17 -16 -15 -9 -8 -7 -45 -44 -43 0
-37 -38 -39 -5 -13 -43 -44 -7 -15 -45 -8 -16 -9 -17 -1 0
-37 -15 -7 -44 -43 -13 -5 -39 -38 -1 -17 -16 -9 -8 -45 0
-43 -44 -7 -15 -37 -45 -8 -16 -38 -9 -17 -39 -1 -5 -13 0
-43 -38 -16 -8 -45 -37 -15 -7 -44 -13 -5 -39 -1 -17 -9 0
-45 -8 -16 -38 -43 -9 -17 -39 -44 -1 -5 -7 -13 -15 -37 0
-9 -17 -39 -44 -45 -1 -5 -7 -8 -13 -15 -16 -37 -38 -43 0
-45 -44 -39 -17 -9 -43 -38 -16 -8 -37 -15 -7 -13 -5 -1 0
-1 -6 -7 -8 -9 -14 -15 -16 -17 -40 -41 -42 -43 -44 -45 0
-9 -8 -7 -6 -1 -45 -44 -42 -17 -43 -41 -16 -40 -15 -14 0
-1 -17 -16 -15 -14 -9 -8 -7 -6 -45 -44 -42 -43 -41 -40 0
-14 -15 -16 -17 -1 -40 -41 -42 -6 -43 -44 -7 -45 -8 -9 0
-14 -6 -42 -41 -40 -1 -17 -16 -15 -9 -8 -7 -45 -44 -43 0
-40 -41 -42 -6 -14 -43 -44 -7 -15 -45 -8 -16 -9 -17 -1 0
-40 -15 -7 -44 -43 -14 -6 -42 -41 -1 -17 -16 -9 -8 -45 0
-43 -44 -7 -15 -40 -45 -8 -16 -41 -9 -17 -42 -1 -6 -14 0
-43 -41 -16 -8 -45 -40 -15 -7 -44 -14 -6 -42 -1 -17 -9 0
-45 -8 -16 -41 -43 -9 -17 -42 -44 -1 -6 -7 -14 -15 -40 0
-9 -17 -42 -44 -45 -1 -6 -7 -8 -14 -15 -16 -40 -41 -43 0
-45 -44 -42 -17 -9 -43 -41 -16 -8 -40 -15 -7 -14 -6 -1 0
-2 -3 -4 -5 -6 -18 -19 -20 -21 -25 -26 -27 -31 -32 -36 0
-6 -5 -4 -3 -2 -36 -32 -27 -21 -31 -26 -20 -25 -19 -18 0
-2 -21 -20 -19 -18 -6 -5 -4 -3 -36 -32 -27 -31 -26 -25 0
-18 -19 -20 -21 -2 -25 -26 -27 -3 -31 -32 -4 -36 -5 -6 0
-18 -3 -27 -26 -25 -2 -21 -20 -19 -6 -5 -4 -36 -32 -31 0
-25 -26 -27 -3 -18 -31 -32 -4 -19 -36 -5 -20 -6 -21 -2 0
-25 -19 -4 -32 -31 -18 -3 -27 -26 -2 -21 -20 -6 -5 -36 0
-31 -32 -4 -19 -25 -36 -5 -20 -26 -6 -21 -27 -2 -3 -18 0
-31 -26 -20 -5 -36 -25 -19 -4 -32 -18 -3 -27 -2 -21 -6 0
-36 -5 -20 -26 -31 -6 -21 -27 -32 -2 -3 -4 -18 -19 -25 0
-6 -21 -27 -32 -36 -2 -3 -4 -5 -18 -19 -20 -25 -26 -31 0
-36 -32 -27 -21 -6 -31 -26 -20 -5 -25 -19 -4 -18 -3 -2 0
-2 -3 -4 -5 -7 -18 -19 -20 -22 -25 -26 -28 -31 -33 -37 0
-7 -5 -4 -3 -2 -37 -33 -28 -22 -31 -26 -20 -25 -19 -18 0
-2 -22 -20 -19 -18 -7 -5 -4 -3 -37 -33 -28 -31 -26 -25 0
-18 -19 -20 -22 -2 -25 -26 -28 -3 -31 -33 -4 -37 -5 -7 0
-18 -3 -28 -26 -25 -2 -22 -20 -19 -7 -5 -4 -37 -33 -31 0
-25 -26 -28 -3 -18 -31 -33 -4 -19 -37 -5 -20 -7 -22 -2 0
-25 -19 -4 -33 -31 -18 -3 -28 -26 -2 -22 -20 -7 -5 -37 0
-31 -33 -4 -19 -25 -37 -5 -20 -26 -7 -22 -28 -2 -3 -18 0
-31 -26 -20 -5 -37 -25 -19 -4 -33 -18 -3 -28 -2 -22 -7 0
-37 -5 -20 -26 -31 -7 -22 -28 -33 -2 -3 -4 -18 -19 -25 0
-7 -22 -28 -33 -37 -2 -3 -4 -5 -18 -19 -20 -25 -26 -31 0
-37 -33 -28 -22 -7 -31 -26 -20 -5 -25 -19 -4 -18 -3 -2 0
-2 -3 -4 -5 -8 -18 -19 -20 -23 -25 -26 -29 -31 -34 -38 0
-8 -5 -4 -3 -2 -38 -34 -29 -23 -31 -26 -20 -25 -19 -18 0
-2 -23 -20 -19 -18 -8 -5 -4 -3 -38 -34 -29 -31 -26 -25 0
-18 -19 -20 -23 -2 -25 -26 -29 -3 -31 -34 -4 -38 -5 -8 0
-18 -3 -29 -26 -25 -2 -23 -20 -19 -8 -5 -4 -38 -34 -31 0
-25 -26 -29 -3 -18 -31 -34 -4 -19 -38 -5 -20 -8 -23 -2 0
-25 -19 -4 -34 -31 -18 -3 -29 -26 -2 -23 -20 -8 -5 -38 0
-31 -34 -4 -19 -25 -38 -5 -20 -26 -8 -23 -29 -2 -3 -18 0
-31 -26 -20 -5 -38 -25 -19 -4 -34 -18 -3 -29 -2 -23 -8 0
-38 -5 -20 -26 -31 -8 -23 -29 -34 -2 -3 -4 -18 -19 -25 0
-8 -23 -29 -34 -38 -2 -3 -4 -5 -18 -19 -20 -25 -26 -31 0
-38 -34 -29 -23 -8 -31 -26 -20 -5 -25 -19 -4 -18 -3 -2 0
-2 -3 -4 -5 -9 -18 -19 -20 -24 -25 -26 -30 -31 -35 -39 0
-9 -5 -4 -3 -2 -39 -35 -30 -24 -31 -26 -20 -25 -19 -18 0
-2 -24 -20 -19 -18 -9 -5 -4 -3 -39 -35 -30 -31 -26 -25 0
-18 -19 -20 -24 -2 -25 -26 -30 -3 -31 -35 -4 -39 -5 -9 0
-18 -3 -30 -26 -25 -2 -24 -20 -19 -9 -5 -4 -39 -35 -31 0
-25 -26 -30 -3 -18 -31 -35 -4 -19 -39 -5 -20 -9 -24 -2 0
-25 -19 -4 -35 -31 -18 -3 -30 -26 -2 -24 -20 -9 -5 -39 0
-31 -35 -4 -19 -25 -39 -5 -20 -26 -9 -24 -30 -2 -3 -18 0
-31 -26 -20 -5 -39 -25 -19 -4 -35 -18 -3 -30 -2 -24 -9 0
-39 -5 -20 -26 -31 -9 -24 -30 -35 -2 -3 -4 -18 -19 -25 0
-9 -24 -30 -35 -39 -2 -3 -4 -5 -18 -19 -20 -25 -26 -31 0
-39 -35 -30 -24 -9 -31 -26 -20 -5 -25 -19 -4 -18 -3 -2 0
-2 -3 -4 -6 -7 -18 -19 -21 -22 -25 -27 -28 -32 -33 -40 0
-7 -6 -4 -3 -2 -40 -33 -28 -22 -32 -27 -21 -25 -19 -18 0
-2 -22 -21 -19 -18 -7 -6 -4 -3 -40 -33 -28 -32 -27 -25 0
-18 -19 -21 -22 -2 -25 -27 -28 -3 -32 -33 -4 -40 -6 -7 0
-18 -3 -28 -27 -25 -2 -22 -21 -19 -7 -6 -4 -40 -33 -32 0
-25 -27 -28 -3 -18 -32 -33 -4 -19 -40 -6 -21 -7 -22 -2 0
-25 -19 -4 -33 -32 -18 -3 -28 -27 -2 -22 -21 -7 -6 -40 0
-32 -33 -4 -19 -25 -40 -6 -21 -27 -7 -22 -28 -2 -3 -18 0
-32 -27 -21 -6 -40 -25 -19 -4 -33 -18 -3 -28 -2 -22 -7 0
-40 -6 -21 -27 -32 -7 -22 -28 -33 -2 -3 -4 -18 -19 -25 0
-7 -22 -28 -33 -40 -2 -3 -4 -6 -18 -19 -21 -25 -27 -32 0
-40 -33 -28 -22 -7 -32 -27 -21 -6 -25 -19 -4 -18 -3 -2 0
-2 -3 -4 -6 -8 -18 -19 -21 -23 -25 -27 -29 -32 -34 -41 0
-8 -6 -4 -3 -2 -41 -34 -29 -23 -32 -27 -21 -25 -19 -18 0
-2 -23 -21 -19 -18 -8 -6 -4 -3 -41 -34 -29 -32 -27 -25 0
-18 -19 -21 -23 -2 -25 -27 -29 -3 -32 -34 -4 -41 -6 -8 0
-18 -3 -29 -27 -25 -2 -23 -21 -19 -8 -6 -4 -41 -34 -32 0
-25 -27 -29 -3 -18 -32 -34 -4 -19 -41 -6 -21 -8 -23 -2 0
-25 -19 -4 -34 -32 -18 -3 -29 -27 -2 -23 -21 -8 -6 -41 0
-32 -34 -4 -19 -25 -41 -6 -21 -27 -8 -23 -29 -2 -3 -18 0
-32 -27 -21 -6 -41 -25 -19 -4 -34 -18 -3 -29 -2 -23 -8 0
-41 -6 -21 -27 -32 -8 -23 -29 -34 -2 -3 -4 -18 -19 -25 0
-8 -23 -29 -34 -41 -2 -3 -4 -6 -18 -19 -21 -25 -27 -32 0
-41 -34 -29 -23 -8 -32 -27 -21 -6 -25 -19 -4 -18 -3 -2 0
-2 -3 -4 -6 -9 -18 -19 -21 -24 -25 -27 -30 -32 -35 -42 0
-9 -6 -4 -3 -2 -42 -35 -30 -24 -32 -27 -21 -25 -19 -18 0
-2 -24 -21 -19 -18 -9 -6 -4 -3 -42 -35 -30 -32 -27 -25 0
-18 -19 -21 -24 -2 -25 -27 -30 -3 -32 -35 -4 -42 -6 -9 0
-18 -3 -30 -27 -25 -2 -24 -21 -19 -9 -6 -4 -42 -35 -32 0
-25 -27 -30 -3 -18 -32 -35 -4 -19 -42 -6 -21 -9 -24 -2 0
-25 -19 -4 -35 -32 -18 -3 -30 -27 -2 -24 -21 -9 -6 -42 0
-32 -35 -4 -19 -25 -42 -6 -21 -27 -9 -24 -30 -2 -3 -18 0
-32 -27 -21 -6 -42 -25 -19 -4 -35 -18 -3 -30 -2 -24 -9 0
-42 -6 -21 -27 -32 -9 -24 -30 -35 -2 -3 -4 -18 -19 -25 0
-9 -24 -30 -35 -42 -2 -3 -4 -6 -18 -19 -21 -25 -27 -32 0
-42 -35 -30 -24 -9 -32 -27 -21 -6 -25 -19 -4 -18 -3 -2 0
-2 -3 -4 -7 -8 -18 -19 -22 -23 -25 -28 -29 -33 -34 -43 0
-8 -7 -4 -3 -2 -43 -34 -29 -23 -33 -28 -22 -25 -19 -18 0
-2 -23 -22 -19 -18 -8 -7 -4 -3 -43 -34 -29 -33 -28 -25 0
-18 -19 -22 -23 -2 -25 -28 -29 -3 -33 -34 -4 -43 -7 -8 0
-18 -3 -29 -28 -25 -2 -23 -22 -19 -8 -7 -4 -43 -34 -33 0
-25 -28 -29 -3 -18 -33 -34 -4 -19 -43 -7 -22 -8 -23 -2 0
-25 -19 -4 -34 -33 -18 -3 -29 -28 -2 -23 -22 -8 -7 -43 0
-33 -34 -4 -19 -25 -43 -7 -22 -28 -8 -23 -29 -2 -3 -18 0
-33 -28 -22 -7 -43 -25 -19 -4 -34 -18 -3 -29 -2 -23 -8 0
-43 -7 -22 -28 -33 -8 -23 -29 -34 -2 -3 -4 -18 -19 -25 0
-8 -23 -29 -34 -43 -2 -3 -4 -7 -18 -19 -22 -25 -28 -33 0
-43 -34 -29 -23 -8 -33 -28 -22 -7 -25 -19 -4 -18 -3 -2 0
-2 -3 -4 -7 -9 -18 -19 -22 -24 -25 -28 -30 -33 -35 -44 0
-9 -7 -4 -3 -2 -44 -35 -30 -24 -33 -28 -22 -25 -19 -18 0
-2 -24 -22 -19 -18 -9 -7 -4 -3 -44 -35 -30 -33 -28 -25 0
-18 -19 -22 -24 -2 -25 -28 -30 -3 -33 -35 -4 -44 -7 -9 0
-18 -3 -30 -28 -25 -2 -24 -22 -19 -9 -7 -4 -44 -35 -33 0
-25 -28 -30 -3 -18 -33 -35 -4 -19 -44 -7 -22 -9 -24 -2 0
-25 -19 -4 -35 -33 -18 -3 -30 -28 -2 -24 -22 -9 -7 -44 0
-33 -35 -4 -19 -25 -44 -7 -22 -28 -9 -24 -30 -2 -3 -18 0
-33 -28 -22 -7 -44 -25 -19 -4 -35 -18 -3 -30 -2 -24 -9 0
-44 -7 -22 -28 -33 -9 -24 -30 -35 -2 -3 -4 -18 -19 -25 0
-9 -24 -30 -35 -44 -2 -3 -4 -7 -18 -19 -22 -25 -28 -33 0
-44 -35 -30 -24 -9 -33 -28 -22 -7 -25 -19 -4 -18 -3 -2 0
-2 -3 -4 -8 -9 -18 -19 -23 -24 -25 -29 -30 -34 -35 -45 0
-9 -8 -4 -3 -2 -45 -35 -30 -24 -34 -29 -23 -25 -19 -18 0
-2 -24 -23 -19 -18 -9 -8 -4 -3 -45 -35 -30 -34 -29 -25 0
-18 -19 -23 -24 -2 -25 -29 -30 -3 -34 -35 -4 -45 -8 -9 0
-18 -3 -30 -29 -25 -2 -24 -23 -19 -9 -8 -4 -45 -35 -34 0
-25 -29 -30 -3 -18 -34 -35 -4 -19 -45 -8 -23 -9 -24 -2 0
-25 -19 -4 -35 -34 -18 -3 -30 -29 -2 -24 -23 -9 -8 -45 0
-34 -35 -4 -19 -25 -45 -8 -23 -29 -9 -24 -30 -2 -3 -18 0
-34 -29 -23 -8 -45 -25 -19 -4 -35 -18 -3 -30 -2 -24 -9 0
-45 -8 -23 -29 -34 -9 -24 -30 -35 -2 -3 -4 -18 -19 -25 0
-9 -24 -30 -35 -45 -2 -3 -4 -8 -18 -19 -23 -25 -29 -34 0
-45 -35 -30 -24 -9 -34 -29 -23 -8 -25 -19 -4 -18 -3 -2 0
-2 -3 -5 -6 -7 -18 -20 -21 -22 -26 -27 -28 -36 -37 -40 0
-7 -6 -5 -3 -2 -40 -37 -28 -22 -36 -27 -21 -26 -20 -18 0
-2 -22 -21 -20 -18 -7 -6 -5 -3 -40 -37 -28 -36 -27 -26 0
-18 -20 -21 -22 -2 -26 -27 -28 -3 -36 -37 -5 -40 -6 -7 0
-18 -3 -28 -27 -26 -2 -22 -21 -20 -7 -6 -5 -40 -37 -36 0
-26 -27 -28 -3 -18 -36 -37 -5 -20 -40 -6 -21 -7 -22 -2 0
-26 -20 -5 -37 -36 -18 -3 -28 -27 -2 -22 -21 -7 -6 -40 0
-36 -37 -5 -20 -26 -40 -6 -21 -27 -7 -22 -28 -2 -3 -18 0
-36 -27 -21 -6 -40 -26 -20 -5 -37 -18 -3 -28 -2 -22 -7 0
-40 -6 -21 -27 -36 -7 -22 -28 -37 -2 -3 -5 -18 -20 -26 0
-7 -22 -28 -37 -40 -2 -3 -5 -6 -18 -20 -21 -26 -27 -36 0
-40 -37 -28 -22 -7 -36 -27 -21 -6 -26 -20 -5 -18 -3 -2 0
-2 -3 -5 -6 -8 -18 -20 -21 -23 -26 -27 -29 -36 -38 -41 0
-8 -6 -5 -3 -2 -41 -38 -29 -23 -36 -27 -21 -26 -20 -18 0
-2 -23 -21 -20 -18 -8 -6 -5 -3 -41 -38 -29 -36 -27 -26 0
-18 -20 -21 -23 -2 -26 -27 -29 -3 -36 -38 -5 -41 -6 -8 0
-18 -3 -29 -27 -26 -2 -23 -21 -20 -8 -6 -5 -41 -38 -36 0
-26 -27 -29 -3 -18 -36 -38 -5 -20 -41 -6 -21 -8 -23 -2 0
-26 -20 -5 -38 -36 -18 -3 -29 -27 -2 -23 -21 -8 -6 -41 0
-36 -38 -5 -20 -26 -41 -6 -21 -27 -8 -23 -29 -2 -3 -18 0
-36 -27 -21 -6 -41 -26 -20 -5 -38 -18 -3 -29 -2 -23 -8 0
-41 -6 -21 -27 -36 -8 -23 -29 -38 -2 -3 -5 -18 -20 -26 0
-8 -23 -29 -38 -41 -2 -3 -5 -6 -18 -20 -21 -26 -27 -36 0
-41 -38 -29 -23 -8 -36 -27 -21 -6 -26 -20 -5 -18 -3 -2 0
-2 -3 -5 -6 -9 -18 -20 -21 -24 -26 -27 -30 -36 -39 -42 0
-9 -6 -5 -3 -2 -42 -39 -30 -24 -36 -27 -21 -26 -20 -18 0
-2 -24 -21 -20 -18 -9 -6 -5 -3 -42 -39 -30 -36 -27 -26 0
-18 -20 -21 -24 -2 -26 -27 -30 -3 -36 -39 -5 -42 -6 -9 0
-18 -3 -30 -27 -26 -2 -24 -21 -20 -9 -6 -5 -42 -39 -36 0
-26 -27 -30 -3 -18 -36 -39 -5 -20 -42 -6 -21 -9 -24 -2 0
-26 -20 -5 -39 -36 -18 -3 -30 -27 -2 -24 -21 -9 -6 -42 0
-36 -39 -5 -20 -26 -42 -6 -21 -27 -9 -24 -30 -2 -3 -18 0
-36 -27 -21 -6 -42 -26 -20 -5 -39 -18 -3 -30 -2 -24 -9 0
-42 -6 -21 -27 -36 -9 -24 -30 -39 -2 -3 -5 -18 -20 -26 0
-9 -24 -30 -39 -42 -2 -3 -5 -6 -18 -20 -21 -26 -27 -36 0
-42 -39 -30 -24 -9 -36 -27 -21 -6 -26 -20 -5 -18 -3 -2 0
-2 -3 -5 -7 -8 -18 -20 -22 -23 -26 -28 -29 -37 -38 -43 0
-8 -7 -5 -3 -2 -43 -38 -29 -23 -37 -28 -22 -26 -20 -18 0
-2 -23 -22 -20 -18 -8 -7 -5 -3 -43 -38 -29 -37 -28 -26 0
-18 -20 -22 -23 -2 -26 -28 -29 -3 -37 -38 -5 -43 -7 -8 0
-18 -3 -29 -28 -26 -2 -23 -22 -20 -8 -7 -5 -43 -38 -37 0
-26 -28 -29 -3 -18 -37 -38 -5 -20 -43 -7 -22 -8 -23 -2 0
-26 -20 -5 -38 -37 -18 -3 -29 -28 -2 -23 -22 -8 -7 -43 0
-37 -38 -5 -20 -26 -43 -7 -22 -28 -8 -23 -29 -2 -3 -18 0
-37 -28 -22 -7 -43 -26 -20 -5 -38 -18 -3 -29 -2 -23 -8 0
-43 -7 -22 -28 -37 -8 -23 -29 -38 -2 -3 -5 -18 -20 -26 0
-8 -23 -29 -38 -43 -2 -3 -5 -7 -18 -20 -22 -26 -28 -37 0
-43 -38 -29 -23 -8 -37 -28 -22 -7 -26 -20 -5 -18 -3 -2 0
-2 -3 -5 -7 -9 -18 -20 -22 -24 -26 -28 -30 -37 -39 -44 0
-9 -7 -5 -3 -2 -44 -39 -30 -24 -37 -28 -22 -26 -20 -18 0
-2 -24 -22 -20 -18 -9 -7 -5 -3 -44 -39 -30 -37 -28 -26 0
-18 -20 -22 -24 -2 -26 -28 -30 -3 -37 -39 -5 -44 -7 -9 0
-18 -3 -30 -28 -26 -2 -24 -22 -20 -9 -7 -5 -44 -39 -37 0
-26 -28 -30 -3 -18 -37 -39 -5 -20 -44 -7 -22 -9 -24 -2 0
-26 -20 -5 -39 -37 -18 -3 -30 -28 -2 -24 -22 -9 -7 -44 0
-37 -39 -5 -20 -26 -44 -7 -22 -28 -9 -24 -30 -2 -3 -18 0
-37 -28 -22 -7 -44 -26 -20 -5 -39 -18 -3 -30 -2 -24 -9 0
-44 -7 -22 -28 -37 -9 -24 -30 -39 -2 -3 -5 -18 -20 -26 0
-9 -24 -30 -39 -44 -2 -3 -5 -7 -18 -20 -22 -26 -28 -37 0
-44 -39 -30 -24 -9 -37 -28 -22 -7 -26 -20 -5 -18 -3 -2 0
-2 -3 -5 -8 -9 -18 -20 -23 -24 -26 -29 -30 -38 -39 -45 0
-9 -8 -5 -3 -2 -45 -39 -30 -24 -38 -29 -23 -26 -20 -18 0
-2 -24 -23 -20 -18 -9 -8 -5 -3 -45 -39 -30 -38 -29 -26 0
-18 -20 -23 -24 -2 -26 -29 -30 -3 -38 -39 -5 -45 -8 -9 0
-18 -3 -30 -29 -26 -2 -24 -23 -20 -9 -8 -5 -45 -39 -38 0
-26 -29 -30 -3 -18 -38 -39 -5 -20 -45 -8 -23 -9 -24 -2 0
-26 -20 -5 -39 -38 -18 -3 -30 -29 -2 -24 -23 -9 -8 -45 0
-38 -39 -5 -20 -26 -45 -8 -23 -29 -9 -24 -30 -2 -3 -18 0
-38 -29 -23 -8 -45 -26 -20 -5 -39 -18 -3 -30 -2 -24 -9 0
-45 -8 -23 -29 -38 -9 -24 -30 -39 -2 -3 -5 -18 -20 -26 0
-9 -24 -30 -39 -45 -2 -3 -5 -8 -18 -20 -23 -26 -29 -38 0
-45 -39 -30 -24 -9 -38 -29 -23 -8 -26 -20 -5 -18 -3 -2 0
-2 -3 -6 -7 -8 -18 -21 -22 -23 -27 -28 -29 -40 -41 -43 0
-8 -7 -6 -3 -2 -43 -41 -29 -23 -40 -28 -22 -27 -21 -18 0
-2 -23 -22 -21 -18 -8 -7 -6 -3 -43 -41 -29 -40 -28 -27 0
-18 -21 -22 -23 -2 -27 -28 -29 -3 -40 -41 -6 -43 -7 -8 0
-18 -3 -29 -28 -27 -2 -23 -22 -21 -8 -7 -6 -43 -41 -40 0
-27 -28 -29 -3 -18 -40 -41 -6 -21 -43 -7 -22 -8 -23 -2 0
-27 -21 -6 -41 -40 -18 -3 -29 -28 -2 -23 -22 -8 -7 -43 0
-40 -41 -6 -21 -27 -43 -7 -22 -28 -8 -23 -29 -2 -3 -18 0
-40 -28 -22 -7 -43 -27 -21 -6 -41 -18 -3 -29 -2 -23 -8 0
-43 -7 -22 -28 -40 -8 -23 -29 -41 -2 -3 -6 -18 -21 -27 0
-8 -23 -29 -41 -43 -2 -3 -6 -7 -18 -21 -22 -27 -28 -40 0
-43 -41 -29 -23 -8 -40 -28 -22 -7 -27 -21 -6 -18 -3 -2 0
-2 -3 -6 -7 -9 -18 -21 -22 -24 -27 -28 -30 -40 -42 -44 0
-9 -7 -6 -3 -2 -44 -42 -30 -24 -40 -28 -22 -27 -21 -18 0
-2 -24 -22 -21 -18 -9 -7 -6 -3 -44 -42 -30 -40 -28 -27 0
-18 -21 -22 -24 -2 -27 -28 -30 -3 -40 -42 -6 -44 -7 -9 0
-18 -3 -30 -28 -27 -2 -24 -22 -21 -9 -7 -6 -44 -42 -40 0
-27 -28 -30 -3 -18 -40 -42 -6 -21 -44 -7 -22 -9 -24 -2 0
-27 -21 -6 -42 -40 -18 -3 -30 -28 -2 -24 -22 -9 -7 -44 0
-40 -42 -6 -21 -27 -44 -7 -22 -28 -9 -24 -30 -2 -3 -18 0
-40 -28 -22 -7 -44 -27 -21 -6 -42 -18 -3 -30 -2 -24 -9 0
-44 -7 -22 -28 -40 -9 -24 -30 -42 -2 -3 -6 -18 -21 -27 0
-9 -24 -30 -42 -44 -2 -3 -6 -7 -18 -21 -22 -27 -28 -40 0
-44 -42 -30 -24 -9 -40 -28 -22 -7 -27 -21 -6 -18 -3 -2 0
-2 -3 -6 -8 -9 -18 -21 -23 -24 -27 -29 -30 -41 -42 -45 0
-9 -8 -6 -3 -2 -45 -42 -30 -24 -41 -29 -23 -27 -21 -18 0
-2 -24 -23 -21 -18 -9 -8 -6 -3 -45 -42 -30 -41 -29 -27 0
-18 -21 -23 -24 -2 -27 -29 -30 -3 -41 -42 -6 -45 -8 -9 0
-18 -3 -30 -29 -27 -2 -24 -23 -21 -9 -8 -6 -45 -42 -41 0
-27 -29 -30 -3 -18 -41 -42 -6 -21 -45 -8 -23 -9 -24 -2 0
-27 -21 -6 -42 -41 -18 -3 -30 -29 -2 -24 -23 -9 -8 -45 0
-41 -42 -6 -21 -27 -45 -8 -23 -29 -9 -24 -30 -2 -3 -18 0
-41 -29 -23 -8 -45 -27 -21 -6 -42 -18 -3 -30 -2 -24 -9 0
-45 -8 -23 -29 -41 -9 -24 -30 -42 -2 -3 -6 -18 -21 -27 0
-9 -24 -30 -42 -45 -2 -3 -6 -8 -18 -21 -23 -27 -29 -41 0
-45 -42 -30 -24 -9 -41 -29 -23 -8 -27 -21 -6 -18 -3 -2 0
-2 -3 -7 -8 -9 -18 -22 -23 -24 -28 -29 -30 -43 -44 -45 0
-9 -8 -7 -3 -2 -45 -44 -30 -24 -43 -29 -23 -28 -22 -18 0
-2 -24 -23 -22 -18 -9 -8 -7 -3 -45 -44 -30 -43 -29 -28 0
-18 -22 -23 -24 -2 -28 -29 -30 -3 -43 -44 -7 -45 -8 -9 0
-18 -3 -30 -29 -28 -2 -24 -23 -22 -9 -8 -7 -45 -44 -43 0
-28 -29 -30 -3 -18 -43 -44 -7 -22 -45 -8 -23 -9 -24 -2 0
-28 -22 -7 -44 -43 -18 -3 -30 -29 -2 -24 -23 -9 -8 -45 0
-43 -44 -7 -22 -28 -45 -8 -23 -29 -9 -24 -30 -2 -3 -18 0
-43 -29 -23 -8 -45 -28 -22 -7 -44 -18 -3 -30 -2 -24 -9 0
-45 -8 -23 -29 -43 -9 -24 -30 -44 -2 -3 -7 -18 -22 -28 0
-9 -24 -30 -44 -45 -2 -3 -7 -8 -18 -22 -23 -28 -29 -43 0
-45 -44 -30 -24 -9 -43 -29 -23 -8 -28 -22 -7 -18 -3 -2 0
-2 -4 -5 -6 -7 -19 -20 -21 -22 -31 -32 -33 -36 -37 -40 0
-7 -6 -5 -4 -2 -40 -37 -33 -22 -36 -32 -21 -31 -20 -19 0
-2 -22 -21 -20 -19 -7 -6 -5 -4 -40 -37 -33 -36 -32 -31 0
-19 -20 -21 -22 -2 -31 -32 -33 -4 -36 -37 -5 -40 -6 -7 0
-19 -4 -33 -32 -31 -2 -22 -21 -20 -7 -6 -5 -40 -37 -36 0
-31 -32 -33 -4 -19 -36 -37 -5 -20 -40 -6 -21 -7 -22 -2 0
-31 -20 -5 -37 -36 -19 -4 -33 -32 -2 -22 -21 -7 -6 -40 0
-36 -37 -5 -20 -31 -40 -6 -21 -32 -7 -22 -33 -2 -4 -19 0
-36 -32 -21 -6 -40 -31 -20 -5 -37 -19 -4 -33 -2 -22 -7 0
-40 -6 -21 -32 -36 -7 -22 -33 -37 -2 -4 -5 -19 -20 -31 0
-7 -22 -33 -37 -40 -2 -4 -5 -6 -19 -20 -21 -31 -32 -36 0
-40 -37 -33 -22 -7 -36 -32 -21 -6 -31 -20 -5 -19 -4 -2 0
-2 -4 -5 -6 -8 -19 -20 -21 -23 -31 -32 -34 -36 -38 -41 0
-8 -6 -5 -4 -2 -41 -38 -34 -23 -36 -32 -21 -31 -20 -19 0
-2 -23 -21 -20 -19 -8 -6 -5 -4 -41 -38 -34 -36 -32 -31 0
-19 -20 -21 -23 -2 -31 -32 -34 -4 -36 -38 -5 -41 -6 -8 0
-19 -4 -34 -32 -31 -2 -23 -21 -20 -8 -6 -5 -41 -38 -36 0
-31 -32 -34 -4 -19 -36 -38 -5 -20 -41 -6 -21 -8 -23 -2 0
-31 -20 -5 -38 -36 -19 -4 -34 -32 -2 -23 -21 -8 -6 -41 0
-36 -38 -5 -20 -31 -41 -6 -21 -32 -8 -23 -34 -2 -4 -19 0
-36 -32 -21 -6 -41 -31 -20 -5 -38 -19 -4 -34 -2 -23 -8 0
-41 -6 -21 -32 -36 -8 -23 -34 -38 -2 -4 -5 -19 -20 -31 0
-8 -23 -34 -38 -41 -2 -4 -5 -6 -19 -20 -21 -31 -32 -36 0
-41 -38 -34 -23 -8 -36 -32 -21 -6 -31 -20 -5 -19 -4 -2 0
-2 -4 -5 -6 -9 -19 -20 -21 -24 -31 -32 -35 -36 -39 -42 0
-9 -6 -5 -4 -2 -42 -39 -35 -24 -36 -32 -21 -31 -20 -19 0
-2 -24 -21 -20 -19 -9 -6 -5 -4 -42 -39 -35 -36 -32 -31 0
-19 -20 -21 -24 -2 -31 -32 -35 -4 -36 -39 -5 -42 -6 -9 0
-19 -4 -35 -32 -31 -2 -24 -21 -20 -9 -6 -5 -42 -39 -36 0
-31 -32 -35 -4 -19 -36 -39 -5 -20 -42 -6 -21 -9 -24 -2 0
-31 -20 -5 -39 -36 -19 -4 -35 -32 -2 -24 -21 -9 -6 -42 0
-36 -39 -5 -20 -31 -42 -6 -21 -32 -9 -24 -35 -2 -4 -19 0
-36 -32 -21 -6 -42 -31 -20 -5 -39 -19 -4 -35 -2 -24 -9 0
-42 -6 -21 -32 -36 -9 -24 -35 -39 -2 -4 -5 -19 -20 -31 0
-9 -24 -35 -39 -42 -2 -4 -5 -6 -19 -20 -21 -31 -32 -36 0
-42 -39 -35 -24 -9 -36 -32 -21 -6 -31 -20 -5 -19 -4 -2 0
-2 -4 -5 -7 -8 -19 -20 -22 -23 -31 -33 -34 -37 -38 -43 0
-8 -7 -5 -4 -2 -43 -38 -34 -23 -37 -33 -22 -31 -20 -19 0
-2 -23 -22 -20 -19 -8 -7 -5 -4 -43 -38 -34 -37 -33 -31 0
-19 -20 -22 -23 -2 -31 -33 -34 -4 -37 -38 -5 -43 -7 -8 0
-19 -4 -34 -33 -31 -2 -23 -22 -20 -8 -7 -5 -43 -38 -37 0
-31 -33 -34 -4 -19 -37 -38 -5 -20 -43 -7 -22 -8 -23 -2 0
-31 -20 -5 -38 -37 -19 -4 -34 -33 -2 -23 -22 -8 -7 -43 0
-37 -38 -5 -20 -31 -43 -7 -22 -33 -8 -23 -34 -2 -4 -19 0
-37 -33 -22 -7 -43 -31 -20 -5 -38 -19 -4 -34 -2 -23 -8 0
-43 -7 -22 -33 -37 -8 -23 -34 -38 -2 -4 -5 -19 -20 -31 0
-8 -23 -34 -38 -43 -2 -4 -5 -7 -19 -20 -22 -31 -33 -37 0
-43 -38 -34 -23 -8 -37 -33 -22 -7 -31 -20 -5 -19 -4 -2 0
-2 -4 -5 -7 -9 -19 -20 -22 -24 -31 -33 -35 -37 -39 -44 0
-9 -7 -5 -4 -2 -44 -39 -35 -24 -37 -33 -22 -31 -20 -19 0
-2 -24 -22 -20 -19 -9 -7 -5 -4 -44 -39 -35 -37 -33 -31 0
-19 -20 -22 -24 -2 -31 -33 -35 -4 -37 -39 -5 -44 -7 -9 0
-19 -4 -35 -33 -31 -2 -24 -22 -20 -9 -7 -5 -44 -39 -37 0
-31 -33 -35 -4 -19 -37 -39 -5 -20 -44 -7 -22 -9 -24 -2 0
-31 -20 -5 -39 -37 -19 -4 -35 -33 -2 -24 -22 -9 -7 -44 0
-37 -39 -5 -20 -31 -44 -7 -22 -33 -9 -24 -35 -2 -4 -19 0
-37 -33 -22 -7 -44 -31 -20 -5 -39 -19 -4 -35 -2 -24 -9 0
-44 -7 -22 -33 -37 -9 -24 -35 -39 -2 -4 -5 -19 -20 -31 0
-9 -24 -35 -39 -44 -2 -4 -5 -7 -19 -20 -22 -31 -33 -37 0
-44 -39 -35 -24 -9 -37 -33 -22 -7 -31 -20 -5 -19 -4 -2 0
-2 -4 -5 -8 -9 -19 -20 -23 -24 -31 -34 -35 -38 -39 -45 0
-9 -8 -5 -4 -2 -45 -39 -35 -24 -38 -34 -23 -31 -20 -19 0
-2 -24 -23 -20 -19 -9 -8 -5 -4 -45 -39 -35 -38 -34 -31 0
-19 -20 -23 -24 -2 -31 -34 -35 -4 -38 -39 -5 -45 -8 -9 0
-19 -4 -35 -34 -31 -2 -24 -23 -20 -9 -8 -5 -45 -39 -38 0
-31 -34 -35 -4 -19 -38 -39 -5 -20 -45 -8 -23 -9 -24 -2 0
-31 -20 -5 -39 -38 -19 -4 -35 -34 -2 -24 -23 -9 -8 -45 0
-38 -39 -5 -20 -31 -45 -8 -23 -34 -9 -24 -35 -2 -4 -19 0
-38 -34 -23 -8 -45 -31 -20 -5 -39 -19 -4 -35 -2 -24 -9 0
-45 -8 -23 -34 -38 -9 -24 -35 -39 -2 -4 -5 -19 -20 -31 0
-9 -24 -35 -39 -45 -2 -4 -5 -8 -19 -20 -23 -31 -34 -38 0
-45 -39 -35 -24 -9 -38 -34 -23 -8 -31 -20 -5 -19 -4 -2 0
-2 -4 -6 -7 -8 -19 -21 -22 -23 -32 -33 -34 -40 -41 -43 0
-8 -7 -6 -4 -2 -43 -41 -34 -23 -40 -33 -22 -32 -21 -19 0
-2 -23 -22 -21 -19 -8 -7 -6 -4 -43 -41 -34 -40 -33 -32 0
-19 -21 -22 -23 -2 -32 -33 -34 -4 -40 -41 -6 -43 -7 -8 0
-19 -4 -34 -33 -32 -2 -23 -22 -21 -8 -7 -6 -43 -41 -40 0
-32 -33 -34 -4 -19 -40 -41 -6 -21 -43 -7 -22 -8 -23 -2 0
-32 -21 -6 -41 -40 -19 -4 -34 -33 -2 -23 -22 -8 -7 -43 0
-40 -41 -6 -21 -32 -43 -7 -22 -33 -8 -23 -34 -2 -4 -19 0
-40 -33 -22 -7 -43 -32 -21 -6 -41 -19 -4 -34 -2 -23 -8 0
-43 -7 -22 -33 -40 -8 -23 -34 -41 -2 -4 -6 -19 -21 -32 0
-8 -23 -34 -41 -43 -2 -4 -6 -7 -19 -21 -22 -32 -33 -40 0
-43 -41 -34 -23 -8 -40 -33 -22 -7 -32 -21 -6 -19 -4 -2 0
-2 -4 -6 -7 -9 -19 -21 -22 -24 -32 -33 -35 -40 -42 -44 0
-9 -7 -6 -4 -2 -44 -42 -35 -24 -40 -33 -22 -32 -21 -19 0
-2 -24 -22 -21 -19 -9 -7 -6 -4 -44 -42 -35 -40 -33 -32 0
-19 -21 -22 -24 -2 -32 -33 -35 -4 -40 -42 -6 -44 -7 -9 0
-19 -4 -35 -33 -32 -2 -24 -22 -21 -9 -7 -6 -44 -42 -40 0
-32 -33 -35 -4 -19 -40 -42 -6 -21 -44 -7 -22 -9 -24 -2 0
-32 -21 -6 -42 -40 -19 -4 -35 -33 -2 -24 -22 -9 -7 -44 0
-40 -42 -6 -21 -32 -44 -7 -22 -33 -9 -24 -35 -2 -4 -19 0
-40 -33 -22 -7 -44 -32 -21 -6 -42 -19 -4 -35 -2 -24 -9 0
-44 -7 -22 -33 -40 -9 -24 -35 -42 -2 -4 -6 -19 -21 -32 0
-9 -24 -35 -42 -44 -2 -4 -6 -7 -19 -21 -22 -32 -33 -40 0
-44 -42 -35 -24 -9 -40 -33 -22 -7 -32 -21 -6 -19 -4 -2 0
-2 -4 -6 -8 -9 -19 -21 -23 -24 -32 -34 -35 -41 -42 -45 0
-9 -8 -6 -4 -2 -45 -42 -35 -24 -41 -34 -23 -32 -21 -19 0
-2 -24 -23 -21 -19 -9 -8 -6 -4 -45 -42 -35 -41 -34 -32 0
-19 -21 -23 -24 -2 -32 -34 -35 -4 -41 -42 -6 -45 -8 -9 0
-19 -4 -35 -34 -32 -2 -24 -23 -21 -9 -8 -6 -45 -42 -41 0
-32 -34 -35 -4 -19 -41 -42 -6 -21 -45 -8 -23 -9 -24 -2 0
-32 -21 -6 -42 -41 -19 -4 -35 -34 -2 -24 -23 -9 -8 -45 0
-41 -42 -6 -21 -32 -45 -8 -23 -34 -9 -24 -35 -2 -4 -19 0
-41 -34 -23 -8 -45 -32 -21 -6 -42 -19 -4 -35 -2 -24 -9 0
-45 -8 -23 -34 -41 -9 -24 -35 -42 -2 -4 -6 -19 -21 -32 0
-9 -24 -35 -42 -45 -2 -4 -6 -8 -19 -21 -23 -32 -34 -41 0
-45 -42 -35 -24 -9 -41 -34 -23 -8 -32 -21 -6 -19 -4 -2 0
-2 -4 -7 -8 -9 -19 -22 -23 -24 -33 -34 -35 -43 -44 -45 0
-9 -8 -7 -4 -2 -45 -44 -35 -24 -43 -34 -23 -33 -22 -19 0
-2 -24 -23 -22 -19 -9 -8 -7 -4 -45 -44 -35 -43 -34 -33 0
-19 -22 -23 -24 -2 -33 -34 -35 -4 -43 -44 -7 -45 -8 -9 0
-19 -4 -35 -34 -33 -2 -24 -23 -22 -9 -8 -7 -45 -44 -43 0
-33 -34 -35 -4 -19 -43 -44 -7 -22 -45 -8 -23 -9 -24 -2 0
-33 -22 -7 -44 -43 -19 -4 -35 -34 -2 -24 -23 -9 -8 -45 0
-43 -44 -7 -22 -33 -45 -8 -23 -34 -9 -24 -35 -2 -4 -19 0
-43 -34 -23 -8 -45 -33 -22 -7 -44 -19 -4 -35 -2 -24 -9 0
-45 -8 -23 -34 -43 -9 -24 -35 -44 -2 -4 -7 -19 -22 -33 0
-9 -24 -35 -44 -45 -2 -4 -7 -8 -19 -22 -23 -33 -34 -43 0
-45 -44 -35 -24 -9 -43 -34 -23 -8 -33 -22 -7 -19 -4 -2 0
-2 -5 -6 -7 -8 -20 -21 -22 -23 -36 -37 -38 -40 -41 -43 0
-8 -7 -6 -5 -2 -43 -41 -38 -23 -40 -37 -22 -36 -21 -20 0
-2 -23 -22 -21 -20 -8 -7 -6 -5 -43 -41 -38 -40 -37 -36 0
-20 -21 -22 -23 -2 -36 -37 -38 -5 -40 -41 -6 -43 -7 -8 0
-20 -5 -38 -37 -36 -2 -23 -22 -21 -8 -7 -6 -43 -41 -40 0
-36 -37 -38 -5 -20 -40 -41 -6 -21 -43 -7 -22 -8 -23 -2 0
-36 -21 -6 -41 -40 -20 -5 -38 -37 -2 -23 -22 -8 -7 -43 0
-40 -41 -6 -21 -36 -43 -7 -22 -37 -8 -23 -38 -2 -5 -20 0
-40 -37 -22 -7 -43 -36 -21 -6 -41 -20 -5 -38 -2 -23 -8 0
-43 -7 -22 -37 -40 -8 -23 -38 -41 -2 -5 -6 -20 -21 -36 0
-8 -23 -38 -41 -43 -2 -5 -6 -7 -20 -21 -22 -36 -37 -40 0
-43 -41 -38 -23 -8 -40 -37 -22 -7 -36 -21 -6 -20 -5 -2 0
-2 -5 -6 -7 -9 -20 -21 -22 -24 -36 -37 -39 -40 -42 -44 0
-9 -7 -6 -5 -2 -44 -42 -39 -24 -40 -37 -22 -36 -21 -20 0
-2 -24 -22 -21 -20 -9 -7 -6 -5 -44 -42 -39 -40 -37 -36 0
-20 -21 -22 -24 -2 -36 -37 -39 -5 -40 -42 -6 -44 -7 -9 0
-20 -5 -39 -37 -36 -2 -24 -22 -21 -9 -7 -6 -44 -42 -40 0
-36 -37 -39 -5 -20 -40 -42 -6 -21 -44 -7 -22 -9 -24 -2 0
-36 -21 -6 -42 -40 -20 -5 -39 -37 -2 -24 -22 -9 -7 -44 0
-40 -42 -6 -21 -36 -44 -7 -22 -37 -9 -24 -39 -2 -5 -20 0
-40 -37 -22 -7 -44 -36 -21 -6 -42 -20 -5 -39 -2 -24 -9 0
-44 -7 -22 -37 -40 -9 -24 -39 -42 -2 -5 -6 -20 -21 -36 0
-9 -24 -39 -42 -44 -2 -5 -6 -7 -20 -21 -22 -36 -37 -40 0
-44 -42 -39 -24 -9 -40 -37 -22 -7 -36 -21 -6 -20 -5 -2 0
-2 -5 -6 -8 -9 -20 -21 -23 -24 -36 -38 -39 -41 -42 -45 0
-9 -8 -6 -5 -2 -45 -42 -39 -24 -41 -38 -23 -36 -21 -20 0
-2 -24 -23 -21 -20 -9 -8 -6 -5 -45 -42 -39 -41 -38 -36 0
-20 -21 -23 -24 -2 -36 -38 -39 -5 -41 -42 -6 -45 -8 -9 0
-20 -5 -39 -38 -36 -2 -24 -23 -21 -9 -8 -6 -45 -42 -41 0
-36 -38 -39 -5 -20 -41 -42 -6 -21 -45 -8 -23 -9 -24 -2 0
-36 -21 -6 -42 -41 -20 -5 -39 -38 -2 -24 -23 -9 -8 -45 0
-41 -42 -6 -21 -36 -45 -8 -23 -38 -9 -24 -39 -2 -5 -20 0
-41 -38 -23 -8 -45 -36 -21 -6 -42 -20 -5 -39 -2 -24 -9 0
-45 -8 -23 -38 -41 -9 -24 -39 -42 -2 -5 -6 -20 -21 -36 0
-9 -24 -39 -42 -45 -2 -5 -6 -8 -20 -21 -23 -36 -38 -41 0
-45 -42 -39 -24 -9 -41 -38 -23 -8 -36 -21 -6 -20 -5 -2 0
-2 -5 -7 -8 -9 -20 -22 -23 -24 -37 -38 -39 -43 -44 -45 0
-9 -8 -7 -5 -2 -45 -44 -39 -24 -43 -38 -23 -37 -22 -20 0
-2 -24 -23 -22 -20 -9 -8 -7 -5 -45 -44 -39 -43 -38 -37 0
-20 -22 -23 -24 -2 -37 -38 -39 -5 -43 -44 -7 -45 -8 -9 0
-20 -5 -39 -38 -37 -2 -24 -23 -22 -9 -8 -7 -45 -44 -43 0
-37 -38 -39 -5 -20 -43 -44 -7 -22 -45 -8 -23 -9 -24 -2 0
-37 -22 -7 -44 -43 -20 -5 -39 -38 -2 -24 -23 -9 -8 -45 0
-43 -44 -7 -22 -37 -45 -8 -23 -38 -9 -24 -39 -2 -5 -20 0
-43 -38 -23 -8 -45 -37 -22 -7 -44 -20 -5 -39 -2 -24 -9 0
-45 -8 -23 -38 -43 -9 -24 -39 -44 -2 -5 -7 -20 -22 -37 0
-9 -24 -39 -44 -45 -2 -5 -7 -8 -20 -22 -23 -37 -38 -43 0
-45 -44 -39 -24 -9 -43 -38 -23 -8 -37 -22 -7 -20 -5 -2 0
-2 -6 -7 -8 -9 -21 -22 -23 -24 -40 -41 -42 -43 -44 -45 0
-9 -8 -7 -6 -2 -45 -44 -42 -24 -43 -41 -23 -40 -22 -21 0
-2 -24 -23 -22 -21 -9 -8 -7 -6 -45 -44 -42 -43 -41 -40 0
-21 -22 -23 -24 -2 -40 -41 -42 -6 -43 -44 -7 -45 -8 -9 0
-21 -6 -42 -41 -40 -2 -24 -23 -22 -9 -8 -7 -45 -44 -43 0
-40 -41 -42 -6 -21 -43 -44 -7 -22 -45 -8 -23 -9 -24 -2 0
-40 -22 -7 -44 -43 -21 -6 -42 -41 -2 -24 -23 -9 -8 -45 0
-43 -44 -7 -22 -40 -45 -8 -23 -41 -9 -24 -42 -2 -6 -21 0
-43 -41 -23 -8 -45 -40 -22 -7 -44 -21 -6 -42 -2 -24 -9 0
-45 -8 -23 -41 -43 -9 -24 -42 -44 -2 -6 -7 -21 -22 -40 0
-9 -24 -42 -44 -45 -2 -6 -7 -8 -21 -22 -23 -40 -41 -43 0
-45 -44 -42 -24 -9 -43 -41 -23 -8 -40 -22 -7 -21 -6 -2 0
-3 -4 -5 -6 -7 -25 -26 -27 -28 -31 -32 -33 -36 -37 -40 0
-7 -6 -5 -4 -3 -40 -37 -33 -28 -36 -32 -27 -31 -26 -25 0
-3 -28 -27 -26 -25 -7 -6 -5 -4 -40 -37 -33 -36 -32 -31 0
-25 -26 -27 -28 -3 -31 -32 -33 -4 -36 -37 -5 -40 -6 -7 0
-25 -4 -33 -32 -31 -3 -28 -27 -26 -7 -6 -5 -40 -37 -36 0
-31 -32 -33 -4 -25 -36 -37 -5 -26 -40 -6 -27 -7 -28 -3 0
-31 -26 -5 -37 -36 -25 -4 -33 -32 -3 -28 -27 -7 -6 -40 0
-36 -37 -5 -26 -31 -40 -6 -27 -32 -7 -28 -33 -3 -4 -25 0
-36 -32 -27 -6 -40 -31 -26 -5 -37 -25 -4 -33 -3 -28 -7 0
-40 -6 -27 -32 -36 -7 -28 -33 -37 -3 -4 -5 -25 -26 -31 0
-7 -28 -33 -37 -40 -3 -4 -5 -6 -25 -26 -27 -31 -32 -36 0
-40 -37 -33 -28 -7 -36 -32 -27 -6 -31 -26 -5 -25 -4 -3 0
-3 -4 -5 -6 -8 -25 -26 -27 -29 -31 -32 -34 -36 -38 -41 0
-8 -6 -5 -4 -3 -41 -38 -34 -29 -36 -32 -27 -31 -26 -25 0
-3 -29 -27 -26 -25 -8 -6 -5 -4 -41 -38 -34 -36 -32 -31 0
-25 -26 -27 -29 -3 -31 -32 -34 -4 -36 -38 -5 -41 -6 -8 0
-25 -4 -34 -32 -31 -3 -29 -27 -26 -8 -6 -5 -41 -38 -36 0
-31 -32 -34 -4 -25 -36 -38 -5 -26 -41 -6 -27 -8 -29 -3 0
-31 -26 -5 -38 -36 -25 -4 -34 -32 -3 -29 -27 -8 -6 -41 0
-36 -38 -5 -26 -31 -41 -6 -27 -32 -8 -29 -34 -3 -4 -25 0
-36 -32 -27 -6 -41 -31 -26 -5 -38 -25 -4 -34 -3 -29 -8 0
-41 -6 -27 -32 -36 -8 -29 -34 -38 -3 -4 -5 -25 -26 -31 0
-8 -29 -34 -38 -41 -3 -4 -5 -6 -25 -26 -27 -31 -32 -36 0
-41 -38 -34 -29 -8 -36 -32 -27 -6 -31 -26 -5 -25 -4 -3 0
-3 -4 -5 -6 -9 -25 -26 -27 -30 -31 -32 -35 -36 -39 -42 0
-9 -6 -5 -4 -3 -42 -39 -35 -30 -36 -32 -27 -31 -26 -25 0
-3 -30 -27 -26 -25 -9 -6 -5 -4 -42 -39 -35 -36 -32 -31 0
-25 -26 -27 -30 -3 -31 -32 -35 -4 -36 -39 -5 -42 -6 -9 0
-25 -4 -35 -32 -31 -3 -30 -27 -26 -9 -6 -5 -42 -39 -36 0
-31 -32 -35 -4 -25 -36 -39 -5 -26 -42 -6 -27 -9 -30 -3 0
-31 -26 -5 -39 -36 -25 -4 -35 -32 -3 -30 -27 -9 -6 -42 0
-36 -39 -5 -26 -31 -42 -6 -27 -32 -9 -30 -35 -3 -4 -25 0
-36 -32 -27 -6 -42 -31 -26 -5 -39 -25 -4 -35 -3 -30 -9 0
-42 -6 -27 -32 -36 -9 -30 -35 -39 -3 -4 -5 -25 -26 -31 0
-9 -30 -35 -39 -42 -3 -4 -5 -6 -25 -26 -27 -31 -32 -36 0
-42 -39 -35 -30 -9 -36 -32 -27 -6 -31 -26 -5 -25 -4 -3 0
-3 -4 -5 -7 -8 -25 -26 -28 -29 -31 -33 -34 -37 -38 -43 0
-8 -7 -5 -4 -3 -43 -38 -34 -29 -37 -33 -28 -31 -26 -25 0
-3 -29 -28 -26 -25 -8 -7 -5 -4 -43 -38 -34 -37 -33 -31 0
-25 -26 -28 -29 -3 -31 -33 -34 -4 -37 -38 -5 -43 -7 -8 0
-25 -4 -34 -33 -31 -3 -29 -28 -26 -8 -7 -5 -43 -38 -37 0
-31 -33 -34 -4 -25 -37 -38 -5 -26 -43 -7 -28 -8 -29 -3 0
-31 -26 -5 -38 -37 -25 -4 -34 -33 -3 -29 -28 -8 -7 -43 0
-37 -38 -5 -26 -31 -43 -7 -28 -33 -8 -29 -34 -3 -4 -25 0
-37 -33 -28 -7 -43 -31 -26 -5 -38 -25 -4 -34 -3 -29 -8 0
-43 -7 -28 -33 -37 -8 -29 -34 -38 -3 -4 -5 -25 -26 -31 0
-8 -29 -34 -38 -43 -3 -4 -5 -7 -25 -26 -28 -31 -33 -37 0
-43 -38 -34 -29 -8 -37 -33 -28 -7 -31 -26 -5 -25 -4 -3 0
-3 -4 -5 -7 -9 -25 -26 -28 -30 -31 -33 -35 -37 -39 -44 0
-9 -7 -5 -4 -3 -44 -39 -35 -30 -37 -33 -28 -31 -26 -25 0
-3 -30 -28 -26 -25 -9 -7 -5 -4 -44 -39 -35 -37 -33 -31 0
-25 -26 -28 -30 -3 -31 -33 -35 -4 -37 -39 -5 -44 -7 -9 0
-25 -4 -35 -33 -31 -3 -30 -28 -26 -9 -7 -5 -44 -39 -37 0
-31 -33 -35 -4 -25 -37 -39 -5 -26 -44 -7 -28 -9 -30 -3 0
-31 -26 -5 -39 -37 -25 -4 -35 -33 -3 -30 -28 -9 -7 -44 0
-37 -39 -5 -26 -31 -44 -7 -28 -33 -9 -30 -35 -3 -4 -25 0
-37 -33 -28 -7 -44 -31 -26 -5 -39 -25 -4 -35 -3 -30 -9 0
-44 -7 -28 -33 -37 -9 -30 -35 -39 -3 -4 -5 -25 -26 -31 0
-9 -30 -35 -39 -44 -3 -4 -5 -7 -25 -26 -28 -31 -33 -37 0
-44 -39 -35 -30 -9 -37 -33 -28 -7 -31 -26 -5 -25 -4 -3 0
-3 -4 -5 -8 -9 -25 -26 -29 -30 -31 -34 -35 -38 -39 -45 0
-9 -8 -5 -4 -3 -45 -39 -35 -30 -38 -34 -29 -31 -26 -25 0
-3 -30 -29 -26 -25 -9 -8 -5 -4 -45 -39 -35 -38 -34 -31 0
-25 -26 -29 -30 -3 -31 -34 -35 -4 -38 -39 -5 -45 -8 -9 0
-25 -4 -35 -34 -31 -3 -30 -29 -26 -9 -8 -5 -45 -39 -38 0
-31 -34 -35 -4 -25 -38 -39 -5 -26 -45 -8 -29 -9 -30 -3 0
-31 -26 -5 -39 -38 -25 -4 -35 -34 -3 -30 -29 -9 -8 -45 0
-38 -39 -5 -26 -31 -45 -8 -29 -34 -9 -30 -35 -3 -4 -25 0
-38 -34 -29 -8 -45 -31 -26 -5 -39 -25 -4 -35 -3 -30 -9 0
-45 -8 -29 -34 -38 -9 -30 -35 -39 -3 -4 -5 -25 -26 -31 0
-9 -30 -35 -39 -45 -3 -4 -5 -8 -25 -26 -29 -31 -34 -38 0
-45 -39 -35 -30 -9 -38 -34 -29 -8 -31 -26 -5 -25 -4 -3 0
-3 -4 -6 -7 -8 -25 -27 -28 -29 -32 -33 -34 -40 -41 -43 0
-8 -7 -6 -4 -3 -43 -41 -34 -29 -40 -33 -28 -32 -27 -25 0
-3 -29 -28 -27 -25 -8 -7 -6 -4 -43 -41 -34 -40 -33 -32 0
-25 -27 -28 -29 -3 -32 -33 -34 -4 -40 -41 -6 -43 -7 -8 0
-25 -4 -34 -33 -32 -3 -29 -28 -27 -8 -7 -6 -43 -41 -40 0
-32 -33 -34 -4 -25 -40 -41 -6 -27 -43 -7 -28 -8 -29 -3 0
-32 -27 -6 -41 -40 -25 -4 -34 -33 -3 -29 -28 -8 -7 -43 0
-40 -41 -6 -27 -32 -43 -7 -28 -33 -8 -29 -34 -3 -4 -25 0
-40 -33 -28 -7 -43 -32 -27 -6 -41 -25 -4 -34 -3 -29 -8 0
-43 -7 -28 -33 -40 -8 -29 -34 -41 -3 -4 -6 -25 -27 -32 0
-8 -29 -34 -41 -43 -3 -4 -6 -7 -25 -27 -28 -32 -33 -40 0
-43 -41 -34 -29 -8 -40 -33 -28 -7 -32 -27 -6 -25 -4 -3 0
-3 -4 -6 -7 -9 -25 -27 -28 -30 -32 -33 -35 -40 -42 -44 0
-9 -7 -6 -4 -3 -44 -42 -35 -30 -40 -33 -28 -32 -27 -25 0
-3 -30 -28 -27 -25 -9 -7 -6 -4 -44 -42 -35 -40 -33 -32 0
-25 -27 -28 -30 -3 -32 -33 -35 -4 -40 -42 -6 -44 -7 -9 0
-25 -4 -35 -33 -32 -3 -30 -28 -27 -9 -7 -6 -44 -42 -40 0
-32 -33 -35 -4 -25 -40 -42 -6 -27 -44 -7 -28 -9 -30 -3 0
-32 -27 -6 -42 -40 -25 -4 -35 -33 -3 -30 -28 -9 -7 -44 0
-40 -42 -6 -27 -32 -44 -7 -28 -33 -9 -30 -35 -3 -4 -25 0
-40 -33 -28 -7 -44 -32 -27 -6 -42 -25 -4 -35 -3 -30 -9 0
-44 -7 -28 -33 -40 -9 -30 -35 -42 -3 -4 -6 -25 -27 -32 0
-9 -30 -35 -42 -44 -3 -4 -6 -7 -25 -27 -28 -32 -33 -40 0
-44 -42 -35 -30 -9 -40 -33 -28 -7 -32 -27 -6 -25 -4 -3 0
-3 -4 -6 -8 -9 -25 -27 -29 -30 -32 -34 -35 -41 -42 -45 0
-9 -8 -6 -4 -3 -45 -42 -35 -30 -41 -34 -29 -32 -27 -25 0
-3 -30 -29 -27 -25 -9 -8 -6 -4 -45 -42 -35 -41 -34 -32 0
-25 -27 -29 -30 -3 -32 -34 -35 -4 -41 -42 -6 -45 -8 -9 0
-25 -4 -35 -34 -32 -3 -30 -29 -27 -9 -8 -6 -45 -42 -41 0
-32 -34 -35 -4 -25 -41 -42 -6 -27 -45 -8 -29 -9 -30 -3 0
-32 -27 -6 -42 -41 -25 -4 -35 -34 -3 -30 -29 -9 -8 -45 0
-41 -42 -6 -27 -32 -45 -8 -29 -34 -9 -30 -35 -3 -4 -25 0
-41 -34 -29 -8 -45 -32 -27 -6 -42 -25 -4 -35 -3 -30 -9 0
-45 -8 -29 -34 -41 -9 -30 -35 -42 -3 -4 -6 -25 -27 -32 0
-9 -30 -35 -42 -45 -3 -4 -6 -8 -25 -27 -29 -32 -34 -41 0
-45 -42 -35 -30 -9 -41 -34 -29 -8 -32 -27 -6 -25 -4 -3 0
-3 -4 -7 -8 -9 -25 -28 -29 -30 -33 -34 -35 -43 -44 -45 0
-9 -8 -7 -4 -3 -45 -44 -35 -30 -43 -34 -29 -33 -28 -25 0
-3 -30 -29 -28 -25 -9 -8 -7 -4 -45 -44 -35 -43 -34 -33 0
-25 -28 -29 -30 -3 -33 -34 -35 -4 -43 -44 -7 -45 -8 -9 0
-25 -4 -35 -34 -33 -3 -30 -29 -28 -9 -8 -7 -45 -44 -43 0
-33 -34 -35 -4 -25 -43 -44 -7 -28 -45 -8 -29 -9 -30 -3 0
-33 -28 -7 -44 -43 -25 -4 -35 -34 -3 -30 -29 -9 -8 -45 0
-43 -44 -7 -28 -33 -45 -8 -29 -34 -9 -30 -35 -3 -4 -25 0
-43 -34 -29 -8 -45 -33 -28 -7 -44 -25 -4 -35 -3 -30 -9 0
-45 -8 -29 -34 -43 -9 -30 -35 -44 -3 -4 -7 -25 -28 -33 0
-9 -30 -35 -44 -45 -3 -4 -7 -8 -25 -28 -29 -33 -34 -43 0
-45 -44 -35 -30 -9 -43 -34 -29 -8 -33 -28 -7 -25 -4 -3 0
-3 -5 -6 -7 -8 -26 -27 -28 -29 -36 -37 -38 -40 -41 -43 0
-8 -7 -6 -5 -3 -43 -41 -38 -29 -40 -37 -28 -36 -27 -26 0
-3 -29 -28 -27 -26 -8 -7 -6 -5 -43 -41 -38 -40 -37 -36 0
-26 -27 -28 -29 -3 -36 -37 -38 -5 -40 -41 -6 -43 -7 -8 0
-26 -5 -38 -37 -36 -3 -29 -28 -27 -8 -7 -6 -43 -41 -40 0
-36 -37 -38 -5 -26 -40 -41 -6 -27 -43 -7 -28 -8 -29 -3 0
-36 -27 -6 -41 -40 -26 -5 -38 -37 -3 -29 -28 -8 -7 -43 0
-40 -41 -6 -27 -36 -43 -7 -28 -37 -8 -29 -38 -3 -5 -26 0
-40 -37 -28 -7 -43 -36 -27 -6 -41 -26 -5 -38 -3 -29 -8 0
-43 -7 -28 -37 -40 -8 -29 -38 -41 -3 -5 -6 -26 -27 -36 0
-8 -29 -38 -41 -43 -3 -5 -6 -7 -26 -27 -28 -36 -37 -40 0
-43 -41 -38 -29 -8 -40 -37 -28 -7 -36 -27 -6 -26 -5 -3 0
-3 -5 -6 -7 -9 -26 -27 -28 -30 -36 -37 -39 -40 -42 -44 0
-9 -7 -6 -5 -3 -44 -42 -39 -30 -40 -37 -28 -36 -27 -26 0
-3 -30 -28 -27 -26 -9 -7 -6 -5 -44 -42 -39 -40 -37 -36 0
-26 -27 -28 -30 -3 -36 -37 -39 -5 -40 -42 -6 -44 -7 -9 0
-26 -5 -39 -37 -36 -3 -30 -28 -27 -9 -7 -6 -44 -42 -40 0
-36 -37 -39 -5 -26 -40 -42 -6 -27 -44 -7 -28 -9 -30 -3 0
-36 -27 -6 -42 -40 -26 -5 -39 -37 -3 -30 -28 -9 -7 -44 0
-40 -42 -6 -27 -36 -44 -7 -28 -37 -9 -30 -39 -3 -5 -26 0
-40 -37 -28 -7 -44 -36 -27 -6 -42 -26 -5 -39 -3 -30 -9 0
-44 -7 -28 -37 -40 -9 -30 -39 -42 -3 -5 -6 -26 -27 -36 0
-9 -30 -39 -42 -44 -3 -5 -6 -7 -26 -27 -28 -36 -37 -40 0
-44 -42 -39 -30 -9 -40 -37 -28 -7 -36 -27 -6 -26 -5 -3 0
-3 -5 -6 -8 -9 -26 -27 -29 -30 -36 -38 -39 -41 -42 -45 0
-9 -8 -6 -5 -3 -45 -42 -39 -30 -41 -38 -29 -36 -27 -26 0
-3 -30 -29 -27 -26 -9 -8 -6 -5 -45 -42 -39 -41 -38 -36 0
-26 -27 -29 -30 -3 -36 -38 -39 -5 -41 -42 -6 -45 -8 -9 0
-26 -5 -39 -38 -36 -3 -30 -29 -27 -9 -8 -6 -45 -42 -41 0
-36 -38 -39 -5 -26 -41 -42 -6 -27 -45 -8 -29 -9 -30 -3 0
-36 -27 -6 -42 -41 -26 -5 -39 -38 -3 -30 -29 -9 -8 -45 0
-41 -42 -6 -27 -36 -45 -8 -29 -38 -9 -30 -39 -3 -5 -26 0
-41 -38 -29 -8 -45 -36 -27 -6 -42 -26 -5 -39 -3 -30 -9 0
-45 -8 -29 -38 -41 -9 -30 -39 -42 -3 -5 -6 -26 -27 -36 0
-9 -30 -39 -42 -45 -3 -5 -6 -8 -26 -27 -29 -36 -38 -41 0
-45 -42 -39 -30 -9 -41 -38 -29 -8 -36 -27 -6 -26 -5 -3 0
-3 -5 -7 -8 -9 -26 -28 -29 -30 -37 -38 -39 -43 -44 -45 0
-9 -8 -7 -5 -3 -45 -44 -39 -30 -43 -38 -29 -37 -28 -26 0
-3 -30 -29 -28 -26 -9 -8 -7 -5 -45 -44 -39 -43 -38 -37 0
-26 -28 -29 -30 -3 -37 -38 -39 -5 -43 -44 -7 -45 -8 -9 0
-26 -5 -39 -38 -37 -3 -30 -29 -28 -9 -8 -7 -45 -44 -43 0
-37 -38 -39 -5 -26 -43 -44 -7 -28 -45 -8 -29 -9 -30 -3 0
-37 -28 -7 -44 -43 -26 -5 -39 -38 -3 -30 -29 -9 -8 -45 0
-43 -44 -7 -28 -37 -45 -8 -29 -38 -9 -30 -39 -3 -5 -26 0
-43 -38 -29 -8 -45 -37 -28 -7 -44 -26 -5 -39 -3 -30 -9 0
-45 -8 -29 -38 -43 -9 -30 -39 -44 -3 -5 -7 -26 -28 -37 0
-9 -30 -39 -44 -45 -3 -5 -7 -8 -26 -28 -29 -37 -38 -43 0
-45 -44 -39 -30 -9 -43 -38 -29 -8 -37 -28 -7 -26 -5 -3 0
-3 -6 -7 -8 -9 -27 -28 -29 -30 -40 -41 -42 -43 -44 -45 0
-9 -8 -7 -6 -3 -45 -44 -42 -30 -43 -41 -29 -40 -28 -27 0
-3 -30 -29 -28 -27 -9 -8 -7 -6 -45 -44 -42 -43 -41 -40 0
-27 -28 -29 -30 -3 -40 -41 -42 -6 -43 -44 -7 -45 -8 -9 0
-27 -6 -42 -41 -40 -3 -30 -29 -28 -9 -8 -7 -45 -44 -43 0
-40 -41 -42 -6 -27 -43 -44 -7 -28 -45 -8 -29 -9 -30 -3 0
-40 -28 -7 -44 -43 -27 -6 -42 -41 -3 -30 -29 -9 -8 -45 0
-43 -44 -7 -28 -40 -45 -8 -29 -41 -9 -30 -42 -3 -6 -27 0
-43 -41 -29 -8 -45 -40 -28 -7 -44 -27 -6 -42 -3 -30 -9 0
-45 -8 -29 -41 -43 -9 -30 -42 -44 -3 -6 -7 -27 -28 -40 0
-9 -30 -42 -44 -45 -3 -6 -7 -8 -27 -28 -29 -40 -41 -43 0
-45 -44 -42 -30 -9 -43 -41 -29 -8 -40 -28 -7 -27 -6 -3 0
-4 -5 -6 -7 -8 -31 -32 -33 -34 -36 -37 -38 -40 -41 -43 0
-8 -7 -6 -5 -4 -43 -41 -38 -34 -40 -37 -33 -36 -32 -31 0
-4 -34 -33 -32 -31 -8 -7 -6 -5 -43 -41 -38 -40 -37 -36 0
-31 -32 -33 -34 -4 -36 -37 -38 -5 -40 -41 -6 -43 -7 -8 0
-31 -5 -38 -37 -36 -4 -34 -33 -32 -8 -7 -6 -43 -41 -40 0
-36 -37 -38 -5 -31 -40 -41 -6 -32 -43 -7 -33 -8 -34 -4 0
-36 -32 -6 -41 -40 -31 -5 -38 -37 -4 -34 -33 -8 -7 -43 0
-40 -41 -6 -32 -36 -43 -7 -33 -37 -8 -34 -38 -4 -5 -31 0
-40 -37 -33 -7 -43 -36 -32 -6 -41 -31 -5 -38 -4 -34 -8 0
-43 -7 -33 -37 -40 -8 -34 -38 -41 -4 -5 -6 -31 -32 -36 0
-8 -34 -38 -41 -43 -4 -5 -6 -7 -31 -32 -33 -36 -37 -40 0
-43 -41 -38 -34 -8 -40 -37 -33 -7 -36 -32 -6 -31 -5 -4 0
-4 -5 -6 -7 -9 -31 -32 -33 -35 -36 -37 -39 -40 -42 -44 0
-9 -7 -6 -5 -4 -44 -42 -39 -35 -40 -37 -33 -36 -32 -31 0
-4 -35 -33 -32 -31 -9 -7 -6 -5 -44 -42 -39 -40 -37 -36 0
-31 -32 -33 -35 -4 -36 -37 -39 -5 -40 -42 -6 -44 -7 -9 0
-31 -5 -39 -37 -36 -4 -35 -33 -32 -9 -7 -6 -44 -42 -40 0
-36 -37 -39 -5 -31 -40 -42 -6 -32 -44 -7 -33 -9 -35 -4 0
-36 -32 -6 -42 -40 -31 -5 -39 -37 -4 -35 -33 -9 -7 -44 0
-40 -42 -6 -32 -36 -44 -7 -33 -37 -9 -35 -39 -4 -5 -31 0
-40 -37 -33 -7 -44 -36 -32 -6 -42 -31 -5 -39 -4 -35 -9 0
-44 -7 -33 -37 -40 -9 -35 -39 -42 -4 -5 -6 -31 -32 -36 0
-9 -35 -39 -42 -44 -4 -5 -6 -7 -31 -32 -33 -36 -37 -40 0
-44 -42 -39 -35 -9 -40 -37 -33 -7 -36 -32 -6 -31 -5 -4 0
-4 -5 -6 -8 -9 -31 -32 -34 -35 -36 -38 -39 -41 -42 -45 0
-9 -8 -6 -5 -4 -45 -42 -39 -35 -41 -38 -34 -36 -32 -31 0
-4 -35 -34 -32 -31 -9 -8 -6 -5 -45 -42 -39 -41 -38 -36 0
-31 -32 -34 -35 -4 -36 -38 -39 -5 -41 -42 -6 -45 -8 -9 0
-31 -5 -39 -38 -36 -4 -35 -34 -32 -9 -8 -6 -45 -42 -41 0
-36 -38 -39 -5 -31 -41 -42 -6 -32 -45 -8 -34 -9 -35 -4 0
-36 -32 -6 -42 -41 -31 -5 -39 -38 -4 -35 -34 -9 -8 -45 0
-41 -42 -6 -32 -36 -45 -8 -34 -38 -9 -35 -39 -4 -5 -31 0
-41 -38 -34 -8 -45 -36 -32 -6 -42 -31 -5 -39 -4 -35 -9 0
-45 -8 -34 -38 -41 -9 -35 -39 -42 -4 -5 -6 -31 -32 -36 0
-9 -35 -39 -42 -45 -4 -5 -6 -8 -31 -32 -34 -36 -38 -41 0
-45 -42 -39 -35 -9 -41 -38 -34 -8 -36 -32 -6 -31 -5 -4 0
-4 -5 -7 -8 -9 -31 -33 -34 -35 -37 -38 -39 -43 -44 -45 0
-9 -8 -7 -5 -4 -45 -44 -39 -35 -43 -38 -34 -37 -33 -31 0
-4 -35 -34 -33 -31 -9 -8 -7 -5 -45 -44 -39 -43 -38 -37 0
-31 -33 -34 -35 -4 -37 -38 -39 -5 -43 -44 -7 -45 -8 -9 0
-31 -5 -39 -38 -37 -4 -35 -34 -33 -9 -8 -7 -45 -44 -43 0
-37 -38 -39 -5 -31 -43 -44 -7 -33 -45 -8 -34 -9 -35 -4 0
-37 -33 -7 -44 -43 -31 -5 -39 -38 -4 -35 -34 -9 -8 -45 0
-43 -44 -7 -33 -37 -45 -8 -34 -38 -9 -35 -39 -4 -5 -31 0
-43 -38 -34 -8 -45 -37 -33 -7 -44 -31 -5 -39 -4 -35 -9 0
-45 -8 -34 -38 -43 -9 -35 -39 -44 -4 -5 -7 -31 -33 -37 0
-9 -35 -39 -44 -45 -4 -5 -7 -8 -31 -33 -34 -37 -38 -43 0
-45 -44 -39 -35 -9 -43 -38 -34 -8 -37 -33 -7 -31 -5 -4 0
-4 -6 -7 -8 -9 -32 -33 -34 -35 -40 -41 -42 -43 -44 -45 0
-9 -8 -7 -6 -4 -45 -44 -42 -35 -43 -41 -34 -40 -33 -32 0
-4 -35 -34 -33 -32 -9 -8 -7 -6 -45 -44 -42 -43 -41 -40 0
-32 -33 -34 -35 -4 -40 -41 -42 -6 -43 -44 -7 -45 -8 -9 0
-32 -6 -42 -41 -40 -4 -35 -34 -33 -9 -8 -7 -45 -44 -43 0
-40 -41 -42 -6 -32 -43 -44 -7 -33 -45 -8 -34 -9 -35 -4 0
-40 -33 -7 -44 -43 -32 -6 -42 -41 -4 -35 -34 -9 -8 -45 0
-43 -44 -7 -33 -40 -45 -8 -34 -41 -9 -35 -42 -4 -6 -32 0
-43 -41 -34 -8 -45 -40 -33 -7 -44 -32 -6 -42 -4 -35 -9 0
-45 -8 -34 -41 -43 -9 -35 -42 -44 -4 -6 -7 -32 -33 -40 0
-9 -35 -42 -44 -45 -4 -6 -7 -8 -32 -33 -34 -40 -41 -43 0
-45 -44 -42 -35 -9 -43 -41 -34 -8 -40 -33 -7 -32 -6 -4 0
-5 -6 -7 -8 -9 -36 -37 -38 -39 -40 -41 -42 -43 -44 -45 0
-9 -8 -7 -6 -5 -45 -44 -42 -39 -43 -41 -38 -40 -37 -36 0
-5 -39 -38 -37 -36 -9 -8 -7 -6 -45 -44 -42 -43 -41 -40 0
-36 -37 -38 -39 -5 -40 -41 -42 -6 -43 -44 -7 -45 -8 -9 0
-36 -6 -42 -41 -40 -5 -39 -38 -37 -9 -8 -7 -45 -44 -43 0
-40 -41 -42 -6 -36 -43 -44 -7 -37 -45 -8 -38 -9 -39 -5 0
-40 -37 -7 -44 -43 -36 -6 -42 -41 -5 -39 -38 -9 -8 -45 0
-43 -44 -7 -37 -40 -45 -8 -38 -41 -9 -39 -42 -5 -6 -36 0
-43 -41 -38 -8 -45 -40 -37 -7 -44 -36 -6 -42 -5 -39 -9 0
-45 -8 -38 -41 -43 -9 -39 -42 -44 -5 -6 -7 -36 -37 -40 0
-9 -39 -42 -44 -45 -5 -6 -7 -8 -36 -37 -38 -40 -41 -43 0
-45 -44 -42 -39 -9 -43 -41 -38 -8 -40 -37 -7 -36 -6 -5 0
-10 -11 -12 -13 -14 -18 -19 -20 -21 -25 -26 -27 -31 -32 -36 0
-14 -13 -12 -11 -10 -36 -32 -27 -21 -31 -26 -20 -25 -19 -18 0
-10 -21 -20 -19 -18 -14 -13 -12 -11 -36 -32 -27 -31 -26 -25 0
-18 -19 -20 -21 -10 -25 -26 -27 -11 -31 -32 -12 -36 -13 -14 0
-18 -11 -27 -26 -25 -10 -21 -20 -19 -14 -13 -12 -36 -32 -31 0
-25 -26 -27 -11 -18 -31 -32 -12 -19 -36 -13 -20 -14 -21 -10 0
-25 -19 -12 -32 -31 -18 -11 -27 -26 -10 -21 -20 -14 -13 -36 0
-31 -32 -12 -19 -25 -36 -13 -20 -26 -14 -21 -27 -10 -11 -18 0
-31 -26 -20 -13 -36 -25 -19 -12 -32 -18 -11 -27 -10 -21 -14 0
-36 -13 -20 -26 -31 -14 -21 -27 -32 -10 -11 -12 -18 -19 -25 0
-14 -21 -27 -32 -36 -10 -11 -12 -13 -18 -19 -20 -25 -26 -31 0
-36 -32 -27 -21 -14 -31 -26 -20 -13 -25 -19 -12 -18 -11 -10 0
-10 -11 -12 -13 -15 -18 -19 -20 -22 -25 -26 -28 -31 -33 -37 0
-15 -13 -12 -11 -10 -37 -33 -28 -22 -31 -26 -20 -25 -19 -18 0
-10 -22 -20 -19 -18 -15 -13 -12 -11 -37 -33 -28 -31 -26 -25 0
-18 -19 -20 -22 -10 -25 -26 -28 -11 -31 -33 -12 -37 -13 -15 0
-18 -11 -28 -26 -25 -10 -22 -20 -19 -15 -13 -12 -37 -33 -31 0
-25 -26 -28 -11 -18 -31 -33 -12 -19 -37 -13 -20 -15 -22 -10 0
-25 -19 -12 -33 -31 -18 -11 -28 -26 -10 -22 -20 -15 -13 -37 0
-31 -33 -12 -19 -25 -37 -13 -20 -26 -15 -22 -28 -10 -11 -18 0
-31 -26 -20 -13 -37 -25 -19 -12 -33 -18 -11 -28 -10 -22 -15 0
-37 -13 -20 -26 -31 -15 -22 -28 -33 -10 -11 -12 -18 -19 -25 0
-15 -22 -28 -33 -37 -10 -11 -12 -13 -18 -19 -20 -25 -26 -31 0
-37 -33 -28 -22 -15 -31 -26 -20 -13 -25 -19 -12 -18 -11 -10 0
-10 -11 -12 -13 -16 -18 -19 -20 -23 -25 -26 -29 -31 -34 -38 0
-16 -13 -12 -11 -10 -38 -34 -29 -23 -31 -26 -20 -25 -19 -18 0
-10 -23 -20 -19 -18 -16 -13 -12 -11 -38 -34 -29 -31 -26 -25 0
-18 -19 -20 -23 -10 -25 -26 -29 -11 -31 -34 -12 -38 -13 -16 0
-18 -11 -29 -26 -25 -10 -23 -20 -19 -16 -13 -12 -38 -34 -31 0
-25 -26 -29 -11 -18 -31 -34 -12 -19 -38 -13 -20 -16 -23 -10 0
-25 -19 -12 -34 -31 -18 -11 -29 -26 -10 -23 -20 -16 -13 -38 0
-31 -34 -12 -19 -25 -38 -13 -20 -26 -16 -23 -29 -10 -11 -18 0
-31 -26 -20 -13 -38 -25 -19 -12 -34 -18 -11 -29 -10 -23 -16 0
-38 -13 -20 -26 -31 -16 -23 -29 -34 -10 -11 -12 -18 -19 -25 0
-16 -23 -29 -34 -38 -10 -11 -12 -13 -18 -19 -20 -25 -26 -31 0
-38 -34 -29 -23 -16 -31 -26 -20 -13 -25 -19 -12 -18 -11 -10 0
-10 -11 -12 -13 -17 -18 -19 -20 -24 -25 -26 -30 -31 -35 -39 0
-17 -13 -12 -11 -10 -39 -35 -30 -24 -31 -26 -20 -25 -19 -18 0
-10 -24 -20 -19 -18 -17 -13 -12 -11 -39 -35 -30 -31 -26 -25 0
-18 -19 -20 -24 -10 -25 -26 -30 -11 -31 -35 -12 -39 -13 -17 0
-18 -11 -30 -26 -25 -10 -24 -20 -19 -17 -13 -12 -39 -35 -31 0
-25 -26 -30 -11 -18 -31 -35 -12 -19 -39 -13 -20 -17 -24 -10 0
-25 -19 -12 -35 -31 -18 -11 -30 -26 -10 -24 -20 -17 -13 -39 0
-31 -35 -12 -19 -25 -39 -13 -20 -26 -17 -24 -30 -10 -11 -18 0
-31 -26 -20 -13 -39 -25 -19 -12 -35 -18 -11 -30 -10 -24 -17 0
-39 -13 -20 -26 -31 -17 -24 -30 -35 -10 -11 -12 -18 -19 -25 0
-17 -24 -30 -35 -39 -10 -11 -12 -13 -18 -19 -20 -25 -26 -31 0
-39 -35 -30 -24 -17 -31 -26 -20 -13 -25 -19 -12 -18 -11 -10 0
-10 -11 -12 -14 -15 -18 -19 -21 -22 -25 -27 -28 -32 -33 -40 0
-15 -14 -12 -11 -10 -40 -33 -28 -22 -32 -27 -21 -25 -19 -18 0
-10 -22 -21 -19 -18 -15 -14 -12 -11 -40 -33 -28 -32 -27 -25 0
-18 -19 -21 -22 -10 -25 -27 -28 -11 -32 -33 -12 -40 -14 -15 0
-18 -11 -28 -27 -25 -10 -22 -21 -19 -15 -14 -12 -40 -33 -32 0
-25 -27 -28 -11 -18 -32 -33 -12 -19 -40 -14 -21 -15 -22 -10 0
-25 -19 -12 -33 -32 -18 -11 -28 -27 -10 -22 -21 -15 -14 -40 0
-32 -33 -12 -19 -25 -40 -14 -21 -27 -15 -22 -28 -10 -11 -18 0
-32 -27 -21 -14 -40 -25 -19 -12 -33 -18 -11 -28 -10 -22 -15 0
-40 -14 -21 -27 -32 -15 -22 -28 -33 -10 -11 -12 -18 -19 -25 0
-15 -22 -28 -33 -40 -10 -11 -12 -14 -18 -19 -21 -25 -27 -32 0
-40 -33 -28 -22 -15 -32 -27 -21 -14 -25 -19 -12 -18 -11 -10 0
-10 -11 -12 -14 -16 -18 -19 -21 -23 -25 -27 -29 -32 -34 -41 0
-16 -14 -12 -11 -10 -41 -34 -29 -23 -32 -27 -21 -25 -19 -18 0
-10 -23 -21 -19 -18 -16 -14 -12 -11 -41 -34 -29 -32 -27 -25 0
-18 -19 -21 -23 -10 -25 -27 -29 -11 -32 -34 -12 -41 -14 -16 0
-18 -11 -29 -27 -25 -10 -23 -21 -19 -16 -14 -12 -41 -34 -32 0
-25 -27 -29 -11 -18 -32 -34 -12 -19 -41 -14 -21 -16 -23 -10 0
-25 -19 -12 -34 -32 -18 -11 -29 -27 -10 -23 -21 -16 -14 -41 0
-32 -34 -12 -19 -25 -41 -14 -21 -27 -16 -23 -29 -10 -11 -18 0
-32 -27 -21 -14 -41 -25 -19 -12 -34 -18 -11 -29 -10 -23 -16 0
-41 -14 -21 -27 -32 -16 -23 -29 -34 -10 -11 -12 -18 -19 -25 0
-16 -23 -29 -34 -41 -10 -11 -12 -14 -18 -19 -21 -25 -27 -32 0
-41 -34 -29 -23 -16 -32 -27 -21 -14 -25 -19 -12 -18 -11 -10 0
-10 -11 -12 -14 -17 -18 -19 -21 -24 -25 -27 -30 -32 -35 -42 0
-17 -14 -12 -11 -10 -42 -35 -30 -24 -32 -27 -21 -25 -19 -18 0
-10 -24 -21 -19 -18 -17 -14 -12 -11 -42 -35 -30 -32 -27 -25 0
-18 -19 -21 -24 -10 -25 -27 -30 -11 -32 -35 -12 -42 -14 -17 0
-18 -11 -30 -27 -25 -10 -24 -21 -19 -17 -14 -12 -42 -35 -32 0
-25 -27 -30 -11 -18 -32 -35 -12 -19 -42 -14 -21 -17 -24 -10 0
-25 -19 -12 -35 -32 -18 -11 -30 -27 -10 -24 -21 -17 -14 -42 0
-32 -35 -12 -19 -25 -42 -14 -21 -27 -17 -24 -30 -10 -11 -18 0
-32 -27 -21 -14 -42 -25 -19 -12 -35 -18 -11 -30 -10 -24 -17 0
-42 -14 -21 -27 -32 -17 -24 -30 -35 -10 -11 -12 -18 -19 -25 0
-17 -24 -30 -35 -42 -10 -11 -12 -14 -18 -19 -21 -25 -27 -32 0
-42 -35 -30 -24 -17 -32 -27 -21 -14 -25 -19 -12 -18 -11 -10 0
-10 -11 -12 -15 -16 -18 -19 -22 -23 -25 -28 -29 -33 -34 -43 0
-16 -15 -12 -11 -10 -43 -34 -29 -23 -33 -28 -22 -25 -19 -18 0
-10 -23 -22 -19 -18 -16 -15 -12 -11 -43 -34 -29 -33 -28 -25 0
-18 -19 -22 -23 -10 -25 -28 -29 -11 -33 -34 -12 -43 -15 -16 0
-18 -11 -29 -28 -25 -10 -23 -22 -19 -16 -15 -12 -43 -34 -33 0
-25 -28 -29 -11 -18 -33 -34 -12 -19 -43 -15 -22 -16 -23 -10 0
-25 -19 -12 -34 -33 -18 -11 -29 -28 -10 -23 -22 -16 -15 -43 0
-33 -34 -12 -19 -25 -43 -15 -22 -28 -16 -23 -29 -10 -11 -18 0
-33 -28 -22 -15 -43 -25 -19 -12 -34 -18 -11 -29 -10 -23 -16 0
-43 -15 -22 -28 -33 -16 -23 -29 -34 -10 -11 -12 -18 -19 -25 0
-16 -23 -29 -34 -43 -10 -11 -12 -15 -18 -19 -22 -25 -28 -33 0
-43 -34 -29 -23 -16 -33 -28 -22 -15 -25 -19 -12 -18 -11 -10 0
-10 -11 -12 -15 -17 -18 -19 -22 -24 -25 -28 -30 -33 -35 -44 0
-17 -15 -12 -11 -10 -44 -35 -30 -24 -33 -28 -22 -25 -19 -18 0
-10 -24 -22 -19 -18 -17 -15 -12 -11 -44 -35 -30 -33 -28 -25 0
-18 -19 -22 -24 -10 -25 -28 -30 -11 -33 -35 -12 -44 -15 -17 0
-18 -11 -30 -28 -25 -10 -24 -22 -19 -17 -15 -12 -44 -35 -33 0
-25 -28 -30 -11 -18 -33 -35 -12 -19 -44 -15 -22 -17 -24 -10 0
-25 -19 -12 -35 -33 -18 -11 -30 -28 -10 -24 -22 -17 -15 -44 0
-33 -35 -12 -19 -25 -44 -15 -22 -28 -17 -24 -30 -10 -11 -18 0
-33 -28 -22 -15 -44 -25 -19 -12 -35 -18 -11 -30 -10 -24 -17 0
-44 -15 -22 -28 -33 -17 -24 -30 -35 -10 -11 -12 -18 -19 -25 0
-17 -24 -30 -35 -44 -10 -11 -12 -15 -18 -19 -22 -25 -28 -33 0
-44 -35 -30 -24 -17 -33 -28 -22 -15 -25 -19 -12 -18 -11 -10 0
-10 -11 -12 -16 -17 -18 -19 -23 -24 -25 -29 -30 -34 -35 -45 0
-17 -16 -12 -11 -10 -45 -35 -30 -24 -34 -29 -23 -25 -19 -18 0
-10 -24 -23 -19 -18 -17 -16 -12 -11 -45 -35 -30 -34 -29 -25 0
-18 -19 -23 -24 -10 -25 -29 -30 -11 -34 -35 -12 -45 -16 -17 0
-18 -11 -30 -29 -25 -10 -24 -23 -19 -17 -16 -12 -45 -35 -34 0
-25 -29 -30 -11 -18 -34 -35 -12 -19 -45 -16 -23 -17 -24 -10 0
-25 -19 -12 -35 -34 -18 -11 -30 -29 -10 -24 -23 -17 -16 -45 0
-34 -35 -12 -19 -25 -45 -16 -23 -29 -17 -24 -30 -10 -11 -18 0
-34 -29 -23 -16 -45 -25 -19 -12 -35 -18 -11 -30 -10 -24 -17 0
-45 -16 -23 -29 -34 -17 -24 -30 -35 -10 -11 -12 -18 -19 -25 0
-17 -24 -30 -35 -45 -10 -11 -12 -16 -18 -19 -23 -25 -29 -34 0
-45 -35 -30 -24 -17 -34 -29 -23 -16 -25 -19 -12 -18 -11 -10 0
-10 -11 -13 -14 -15 -18 -20 -21 -22 -26 -27 -28 -36 -37 -40 0
-15 -14 -13 -11 -10 -40 -37 -28 -22 -36 -27 -21 -26 -20 -18 0
-10 -22 -21 -20 -18 -15 -14 -13 -11 -40 -37 -28 -36 -27 -26 0
-18 -20 -21 -22 -10 -26 -27 -28 -11 -36 -37 -13 -40 -14 -15 0
-18 -11 -28 -27 -26 -10 -22 -21 -20 -15 -14 -13 -40 -37 -36 0
-26 -27 -28 -11 -18 -36 -37 -13 -20 -40 -14 -21 -15 -22 -10 0
-26 -20 -13 -37 -36 -18 -11 -28 -27 -10 -22 -21 -15 -14 -40 0
-36 -37 -13 -20 -26 -40 -14 -21 -27 -15 -22 -28 -10 -11 -18 0
-36 -27 -21 -14 -40 -26 -20 -13 -37 -18 -11 -28 -10 -22 -15 0
-40 -14 -21 -27 -36 -15 -22 -28 -37 -10 -11 -13 -18 -20 -26 0
-15 -22 -28 -37 -40 -10 -11 -13 -14 -18 -20 -21 -26 -27 -36 0
-40 -37 -28 -22 -15 -36 -27 -21 -14 -26 -20 -13 -18 -11 -10 0
-10 -11 -13 -14 -16 -18 -20 -21 -23 -26 -27 -29 -36 -38 -41 0
-16 -14 -13 -11 -10 -41 -38 -29 -23 -36 -27 -21 -26 -20 -18 0
-10 -23 -21 -20 -18 -16 -14 -13 -11 -41 -38 -29 -36 -27 -26 0
-18 -20 -21 -23 -10 -26 -27 -29 -11 -36 -38 -13 -41 -14 -16 0
-18 -11 -29 -27 -26 -10 -23 -21 -20 -16 -14 -13 -41 -38 -36 0
-26 -27 -29 -11 -18 -36 -38 -13 -20 -41 -14 -21 -16 -23 -10 0
-26 -20 -13 -38 -36 -18 -11 -29 -27 -10 -23 -21 -16 -14 -41 0
-36 -38 -13 -20 -26 -41 -14 -21 -27 -16 -23 -29 -10 -11 -18 0
-36 -27 -21 -14 -41 -26 -20 -13 -38 -18 -11 -29 -10 -23 -16 0
-41 -14 -21 -27 -36 -16 -23 -29 -38 -10 -11 -13 -18 -20 -26 0
-16 -23 -29 -38 -41 -10 -11 -13 -14 -18 -20 -21 -26 -27 -36 0
-41 -38 -29 -23 -16 -36 -27 -21 -14 -26 -20 -13 -18 -11 -10 0
-10 -11 -13 -14 -17 -18 -20 -21 -24 -26 -27 -30 -36 -39 -42 0
-17 -14 -13 -11 -10 -42 -39 -30 -24 -36 -27 -21 -26 -20 -18 0
-10 -24 -21 -20 -18 -17 -14 -13 -11 -42 -39 -30 -36 -27 -26 0
-18 -20 -21 -24 -10 -26 -27 -30 -11 -36 -39 -13 -42 -14 -17 0
-18 -11 -30 -27 -26 -10 -24 -21 -20 -17 -14 -13 -42 -39 -36 0
-26 -27 -30 -11 -18 -36 -39 -13 -20 -42 -14 -21 -17 -24 -10 0
-26 -20 -13 -39 -36 -18 -11 -30 -27 -10 -24 -21 -17 -14 -42 0
-36 -39 -13 -20 -26 -42 -14 -21 -27 -17 -24 -30 -10 -11 -18 0
-36 -27 -21 -14 -42 -26 -20 -13 -39 -18 -11 -30 -10 -24 -17 0
-42 -14 -21 -27 -36 -17 -24 -30 -39 -10 -11 -13 -18 -20 -26 0
-17 -24 -30 -39 -42 -10 -11 -13 -14 -18 -20 -21 -26 -27 -36 0
-42 -39 -30 -24 -17 -36 -27 -21 -14 -26 -20 -13 -18 -11 -10 0
-10 -11 -13 -15 -16 -18 -20 -22 -23 -26 -28 -29 -37 -38 -43 0
-16 -15 -13 -11 -10 -43 -38 -29 -23 -37 -28 -22 -26 -20 -18 0
-10 -23 -22 -20 -18 -16 -15 -13 -11 -43 -38 -29 -37 -28 -26 0
-18 -20 -22 -23 -10 -26 -28 -29 -11 -37 -38 -13 -43 -15 -16 0
-18 -11 -29 -28 -26 -10 -23 -22 -20 -16 -15 -13 -43 -38 -37 0
-26 -28 -29 -11 -18 -37 -38 -13 -20 -43 -15 -22 -16 -23 -10 0
-26 -20 -13 -38 -37 -18 -11 -29 -28 -10 -23 -22 -16 -15 -43 0
-37 -38 -13 -20 -26 -43 -15 -22 -28 -16 -23 -29 -10 -11 -18 0
-37 -28 -22 -15 -43 -26 -20 -13 -38 -18 -11 -29 -10 -23 -16 0
-43 -15 -22 -28 -37 -16 -23 -29 -38 -10 -11 -13 -18 -20 -26 0
-16 -23 -29 -38 -43 -10 -11 -13 -15 -18 -20 -22 -26 -28 -37 0
-43 -38 -29 -23 -16 -37 -28 -22 -15 -26 -20 -13 -18 -11 -10 0
-10 -11 -13 -15 -17 -18 -20 -22 -24 -26 -28 -30 -37 -39 -44 0
-17 -15 -13 -11 -10 -44 -39 -30 -24 -37 -28 -22 -26 -20 -18 0
-10 -24 -22 -20 -18 -17 -15 -13 -11 -44 -39 -30 -37 -28 -26 0
-18 -20 -22 -24 -10 -26 -28 -30 -11 -37 -39 -13 -44 -15 -17 0
-18 -11 -30 -28 -26 -10 -24 -22 -20 -17 -15 -13 -44 -39 -37 0
-26 -28 -30 -11 -18 -37 -39 -13 -20 -44 -15 -22 -17 -24 -10 0
-26 -20 -13 -39 -37 -18 -11 -30 -28 -10 -24 -22 -17 -15 -44 0
-37 -39 -13 -20 -26 -44 -15 -22 -28 -17 -24 -30 -10 -11 -18 0
-37 -28 -22 -15 -44 -26 -20 -13 -39 -18 -11 -30 -10 -24 -17 0
-44 -15 -22 -28 -37 -17 -24 -30 -39 -10 -11 -13 -18 -20 -26 0
-17 -24 -30 -39 -44 -10 -11 -13 -15 -18 -20 -22 -26 -28 -37 0
-44 -39 -30 -24 -17 -37 -28 -22 -15 -26 -20 -13 -18 -11 -10 0
-10 -11 -13 -16 -17 -18 -20 -23 -24 -26 -29 -30 -38 -39 -45 0
-17 -16 -13 -11 -10 -45 -39 -30 -24 -38 -29 -23 -26 -20 -18 0
-10 -24 -23 -20 -18 -17 -16 -13 -11 -45 -39 -30 -38 -29 -26 0
-18 -20 -23 -24 -10 -26 -29 -30 -11 -38 -39 -13 -45 -16 -17 0
-18 -11 -30 -29 -26 -10 -24 -23 -20 -17 -16 -13 -45 -39 -38 0
-26 -29 -30 -11 -18 -38 -39 -13 -20 -45 -16 -23 -17 -24 -10 0
-26 -20 -13 -39 -38 -18 -11 -30 -29 -10 -24 -23 -17 -16 -45 0
-38 -39 -13 -20 -26 -45 -16 -23 -29 -17 -24 -30 -10 -11 -18 0
-38 -29 -23 -16 -45 -26 -20 -13 -39 -18 -11 -30 -10 -24 -17 0
-45 -16 -23 -29 -38 -17 -24 -30 -39 -10 -11 -13 -18 -20 -26 0
-17 -24 -30 -39 -45 -10 -11 -13 -16 -18 -20 -23 -26 -29 -38 0
-45 -39 -30 -24 -17 -38 -29 -23 -16 -26 -20 -13 -18 -11 -10 0
-10 -11 -14 -15 -16 -18 -21 -22 -23 -27 -28 -29 -40 -41 -43 0
-16 -15 -14 -11 -10 -43 -41 -29 -23 -40 -28 -22 -27 -21 -18 0
-10 -23 -22 -21 -18 -16 -15 -14 -11 -43 -41 -29 -40 -28 -27 0
-18 -21 -22 -23 -10 -27 -28 -29 -11 -40 -41 -14 -43 -15 -16 0
-18 -11 -29 -28 -27 -10 -23 -22 -21 -16 -15 -14 -43 -41 -40 0
-27 -28 -29 -11 -18 -40 -41 -14 -21 -43 -15 -22 -16 -23 -10 0
-27 -21 -14 -41 -40 -18 -11 -29 -28 -10 -23 -22 -16 -15 -43 0
-40 -41 -14 -21 -27 -43 -15 -22 -28 -16 -23 -29 -10 -11 -18 0
-40 -28 -22 -15 -43 -27 -21 -14 -41 -18 -11 -29 -10 -23 -16 0
-43 -15 -22 -28 -40 -16 -23 -29 -41 -10 -11 -14 -18 -21 -27 0
-16 -23 -29 -41 -43 -10 -11 -14 -15 -18 -21 -22 -27 -28 -40 0
-43 -41 -29 -23 -16 -40 -28 -22 -15 -27 -21 -14 -18 -11 -10 0
-10 -11 -14 -15 -17 -18 -21 -22 -24 -27 -28 -30 -40 -42 -44 0
-17 -15 -14 -11 -10 -44 -42 -30 -24 -40 -28 -22 -27 -21 -18 0
-10 -24 -22 -21 -18 -17 -15 -14 -11 -44 -42 -30 -40 -28 -27 0
-18 -21 -22 -24 -10 -27 -28 -30 -11 -40 -42 -14 -44 -15 -17 0
-18 -11 -30 -28 -27 -10 -24 -22 -21 -17 -15 -14 -44 -42 -40 0
-27 -28 -30 -11 -18 -40 -42 -14 -21 -44 -15 -22 -17 -24 -10 0
-27 -21 -14 -42 -40 -18 -11 -30 -28 -10 -24 -22 -17 -15 -44 0
-40 -42 -14 -21 -27 -44 -15 -22 -28 -17 -24 -30 -10 -11 -18 0
-40 -28 -22 -15 -44 -27 -21 -14 -42 -18 -11 -30 -10 -24 -17 0
-44 -15 -22 -28 -40 -17 -24 -30 -42 -10 -11 -14 -18 -21 -27 0
-17 -24 -30 -42 -44 -10 -11 -14 -15 -18 -21 -22 -27 -28 -40 0
-44 -42 -30 -24 -17 -40 -28 -22 -15 -27 -21 -14 -18 -11 -10 0
-10 -11 -14 -16 -17 -18 -21 -23 -24 -27 -29 -30 -41 -42 -45 0
-17 -16 -14 -11 -10 -45 -42 -30 -24 -41 -29 -23 -27 -21 -18 0
-10 -24 -23 -21 -18 -17 -16 -14 -11 -45 -42 -30 -41 -29 -27 0
-18 -21 -23 -24 -10 -27 -29 -30 -11 -41 -42 -14 -45 -16 -17 0
-18 -11 -30 -29 -27 -10 -24 -23 -21 -17 -16 -14 -45 -42 -41 0
-27 -29 -30 -11 -18 -41 -42 -14 -21 -45 -16 -23 -17 -24 -10 0
-27 -21 -14 -42 -41 -18 -11 -30 -29 -10 -24 -23 -17 -16 -45 0
-41 -42 -14 -21 -27 -45 -16 -23 -29 -17 -24 -30 -10 -11 -18 0
-41 -29 -23 -16 -45 -27 -21 -14 -42 -18 -11 -30 -10 -24 -17 0
-45 -16 -23 -29 -41 -17 -24 -30 -42 -10 -11 -14 -18 -21 -27 0
-17 -24 -30 -42 -45 -10 -11 -14 -16 -18 -21 -23 -27 -29 -41 0
-45 -42 -30 -24 -17 -41 -29 -23 -16 -27 -21 -14 -18 -11 -10 0
-10 -11 -15 -16 -17 -18 -22 -23 -24 -28 -29 -30 -43 -44 -45 0
-17 -16 -15 -11 -10 -45 -44 -30 -24 -43 -29 -23 -28 -22 -18 0
-10 -24 -23 -22 -18 -17 -16 -15 -11 -45 -44 -30 -43 -29 -28 0
-18 -22 -23 -24 -10 -28 -29 -30 -11 -43 -44 -15 -45 -16 -17 0
-18 -11 -30 -29 -28 -10 -24 -23 -22 -17 -16 -15 -45 -44 -43 0
-28 -29 -30 -11 -18 -43 -44 -15 -22 -45 -16 -23 -17 -24 -10 0
-28 -22 -15 -44 -43 -18 -11 -30 -29 -10 -24 -23 -17 -16 -45 0
-43 -44 -15 -22 -28 -45 -16 -23 -29 -17 -24 -30 -10 -11 -18 0
-43 -29 -23 -16 -45 -28 -22 -15 -44 -18 -11 -30 -10 -24 -17 0
-45 -16 -23 -29 -43 -17 -24 -30 -44 -10 -11 -15 -18 -22 -28 0
-17 -24 -30 -44 -45 -10 -11 -15 -16 -18 -22 -23 -28 -29 -43 0
-45 -44 -30 -24 -17 -43 -29 -23 -16 -28 -22 -15 -18 -11 -10 0
-10 -12 -13 -14 -15 -19 -20 -21 -22 -31 -32 -33 -36 -37 -40 0
-15 -14 -13 -12 -10 -40 -37 -33 -22 -36 -32 -21 -31 -20 -19 0
-10 -22 -21 -20 -19 -15 -14 -13 -12 -40 -37 -33 -36 -32 -31 0
-19 -20 -21 -22 -10 -31 -32 -33 -12 -36 -37 -13 -40 -14 -15 0
-19 -12 -33 -32 -31 -10 -22 -21 -20 -15 -14 -13 -40 -37 -36 0
-31 -32 -33 -12 -19 -36 -37 -13 -20 -40 -14 -21 -15 -22 -10 0
-31 -20 -13 -37 -36 -19 -12 -33 -32 -10 -22 -21 -15 -14 -40 0
-36 -37 -13 -20 -31 -40 -14 -21 -32 -15 -22 -33 -10 -12 -19 0
-36 -32 -21 -14 -40 -31 -20 -13 -37 -19 -12 -33 -10 -22 -15 0
-40 -14 -21 -32 -36 -15 -22 -33 -37 -10 -12 -13 -19 -20 -31 0
-15 -22 -33 -37 -40 -10 -12 -13 -14 -19 -20 -21 -31 -32 -36 0
-40 -37 -33 -22 -15 -36 -32 -21 -14 -31 -20 -13 -19 -12 -10 0
-10 -12 -13 -14 -16 -19 -20 -21 -23 -31 -32 -34 -36 -38 -41 0
-16 -14 -13 -12 -10 -41 -38 -34 -23 -36 -32 -21 -31 -20 -19 0
-10 -23 -21 -20 -19 -16 -14 -13 -12 -41 -38 -34 -36 -32 -31 0
-19 -20 -21 -23 -10 -31 -32 -34 -12 -36 -38 -13 -41 -14 -16 0
-19 -12 -34 -32 -31 -10 -23 -21 -20 -16 -14 -13 -41 -38 -36 0
-31 -32 -34 -12 -19 -36 -38 -13 -20 -41 -14 -21 -16 -23 -10 0
-31 -20 -13 -38 -36 -19 -12 -34 -32 -10 -23 -21 -16 -14 -41 0
-36 -38 -13 -20 -31 -41 -14 -21 -32 -16 -23 -34 -10 -12 -19 0
-36 -32 -21 -14 -41 -31 -20 -13 -38 -19 -12 -34 -10 -23 -16 0
-41 -14 -21 -32 -36 -16 -23 -34 -38 -10 -12 -13 -19 -20 -31 0
-16 -23 -34 -38 -41 -10 -12 -13 -14 -19 -20 -21 -31 -32 -36 0
-41 -38 -34 -23 -16 -36 -32 -21 -14 -31 -20 -13 -19 -12 -10 0
-10 -12 -13 -14 -17 -19 -20 -21 -24 -31 -32 -35 -36 -39 -42 0
-17 -14 -13 -12 -10 -42 -39 -35 -24 -36 -32 -21 -31 -20 -19 0
-10 -24 -21 -20 -19 -17 -14 -13 -12 -42 -39 -35 -36 -32 -31 0
-19 -20 -21 -24 -10 -31 -32 -35 -12 -36 -39 -13 -42 -14 -17 0
-19 -12 -35 -32 -31 -10 -24 -21 -20 -17 -14 -13 -42 -39 -36 0
-31 -32 -35 -12 -19 -36 -39 -13 -20 -42 -14 -21 -17 -24 -10 0
-31 -20 -13 -39 -36 -19 -12 -35 -32 -10 -24 -21 -17 -14 -42 0
-36 -39 -13 -20 -31 -42 -14 -21 -32 -17 -24 -35 -10 -12 -19 0
-36 -32 -21 -14 -42 -31 -20 -13 -39 -19 -12 -35 -10 -24 -17 0
-42 -14 -21 -32 -36 -17 -24 -35 -39 -10 -12 -13 -19 -20 -31 0
-17 -24 -35 -39 -42 -10 -12 -13 -14 -19 -20 -21 -31 -32 -36 0
-42 -39 -35 -24 -17 -36 -32 -21 -14 -31 -20 -13 -19 -12 -10 0
-10 -12 -13 -15 -16 -19 -20 -22 -23 -31 -33 -34 -37 -38 -43 0
-16 -15 -13 -12 -10 -43 -38 -34 -23 -37 -33 -22 -31 -20 -19 0
-10 -23 -22 -20 -19 -16 -15 -13 -12 -43 -38 -34 -37 -33 -31 0
-19 -20 -22 -23 -10 -31 -33 -34 -12 -37 -38 -13 -43 -15 -16 0
-19 -12 -34 -33 -31 -10 -23 -22 -20 -16 -15 -13 -43 -38 -37 0
-31 -33 -34 -12 -19 -37 -38 -13 -20 -43 -15 -22 -16 -23 -10 0
-31 -20 -13 -38 -37 -19 -12 -34 -33 -10 -23 -22 -16 -15 -43 0
-37 -38 -13 -20 -31 -43 -15 -22 -33 -16 -23 -34 -10 -12 -19 0
-37 -33 -22 -15 -43 -31 -20 -13 -38 -19 -12 -34 -10 -23 -16 0
-43 -15 -22 -33 -37 -16 -23 -34 -38 -10 -12 -13 -19 -20 -31 0
-16 -23 -34 -38 -43 -10 -12 -13 -15 -19 -20 -22 -31 -33 -37 0
-43 -38 -34 -23 -16 -37 -33 -22 -15 -31 -20 -13 -19 -12 -10 0
-10 -12 -13 -15 -17 -19 -20 -22 -24 -31 -33 -35 -37 -39 -44 0
-17 -15 -13 -12 -10 -44 -39 -35 -24 -37 -33 -22 -31 -20 -19 0
-10 -24 -22 -20 -19 -17 -15 -13 -12 -44 -39 -35 -37 -33 -31 0
-19 -20 -22 -24 -10 -31 -33 -35 -12 -37 -39 -13 -44 -15 -17 0
-19 -12 -35 -33 -31 -10 -24 -22 -20 -17 -15 -13 -44 -39 -37 0
-31 -33 -35 -12 -19 -37 -39 -13 -20 -44 -15 -22 -17 -24 -10 0
-31 -20 -13 -39 -37 -19 -12 -35 -33 -10 -24 -22 -17 -15 -44 0
-37 -39 -13 -20 -31 -44 -15 -22 -33 -17 -24 -35 -10 -12 -19 0
-37 -33 -22 -15 -44 -31 -20 -13 -39 -19 -12 -35 -10 -24 -17 0
-44 -15 -22 -33 -37 -17 -24 -35 -39 -10 -12 -13 -19 -20 -31 0
-17 -24 -35 -39 -44 -10 -12 -13 -15 -19 -20 -22 -31 -33 -37 0
-44 -39 -35 -24 -17 -37 -33 -22 -15 -31 -20 -13 -19 -12 -10 0
-10 -12 -13 -16 -17 -19 -20 -23 -24 -31 -34 -35 -38 -39 -45 0
-17 -16 -13 -12 -10 -45 -39 -35 -24 -38 -34 -23 -31 -20 -19 0
-10 -24 -23 -20 -19 -17 -16 -13 -12 -45 -39 -35 -38 -34 -31 0
-19 -20 -23 -24 -10 -31 -34 -35 -12 -38 -39 -13 -45 -16 -17 0
-19 -12 -35 -34 -31 -10 -24 -23 -20 -17 -16 -13 -45 -39 -38 0
-31 -34 -35 -12 -19 -38 -39 -13 -20 -45 -16 -23 -17 -24 -10 0
-31 -20 -13 -39 -38 -19 -12 -35 -34 -10 -24 -23 -17 -16 -45 0
-38 -39 -13 -20 -31 -45 -16 -23 -34 -17 -24 -35 -10 -12 -19 0
-38 -34 -23 -16 -45 -31 -20 -13 -39 -19 -12 -35 -10 -24 -17 0
-45 -16 -23 -34 -38 -17 -24 -35 -39 -10 -12 -13 -19 -20 -31 0
-17 -24 -35 -39 -45 -10 -12 -13 -16 -19 -20 -23 -31 -34 -38 0
-45 -39 -35 -24 -17 -38 -34 -23 -16 -31 -20 -13 -19 -12 -10 0
-10 -12 -14 -15 -16 -19 -21 -22 -23 -32 -33 -34 -40 -41 -43 0
-16 -15 -14 -12 -10 -43 -41 -34 -23 -40 -33 -22 -32 -21 -19 0
-10 -23 -22 -21 -19 -16 -15 -14 -12 -43 -41 -34 -40 -33 -32 0
-19 -21 -22 -23 -10 -32 -33 -34 -12 -40 -41 -14 -43 -15 -16 0
-19 -12 -34 -33 -32 -10 -23 -22 -21 -16 -15 -14 -43 -41 -40 0
-32 -33 -34 -12 -19 -40 -41 -14 -21 -43 -15 -22 -16 -23 -10 0
-32 -21 -14 -41 -40 -19 -12 -34 -33 -10 -23 -22 -16 -15 -43 0
-40 -41 -14 -21 -32 -43 -15 -22 -33 -16 -23 -34 -10 -12 -19 0
-40 -33 -22 -15 -43 -32 -21 -14 -41 -19 -12 -34 -10 -23 -16 0
-43 -15 -22 -33 -40 -16 -23 -34 -41 -10 -12 -14 -19 -21 -32 0
-16 -23 -34 -41 -43 -10 -12 -14 -15 -19 -21 -22 -32 -33 -40 0
-43 -41 -34 -23 -16 -40 -33 -22 -15 -32 -21 -14 -19 -12 -10 0
-10 -12 -14 -15 -17 -19 -21 -22 -24 -32 -33 -35 -40 -42 -44 0
-17 -15 -14 -12 -10 -44 -42 -35 -24 -40 -33 -22 -32 -21 -19 0
-10 -24 -22 -21 -19 -17 -15 -14 -12 -44 -42 -35 -40 -33 -32 0
-19 -21 -22 -24 -10 -32 -33 -35 -12 -40 -42 -14 -44 -15 -17 0
-19 -12 -35 -33 -32 -10 -24 -22 -21 -17 -15 -14 -44 -42 -40 0
-32 -33 -35 -12 -19 -40 -42 -14 -21 -44 -15 -22 -17 -24 -10 0
-32 -21 -14 -42 -40 -19 -12 -35 -33 -10 -24 -22 -17 -15 -44 0
-40 -42 -14 -21 -32 -44 -15 -22 -33 -17 -24 -35 -10 -12 -19 0
-40 -33 -22 -15 -44 -32 -21 -14 -42 -19 -12 -35 -10 -24 -17 0
-44 -15 -22 -33 -40 -17 -24 -35 -42 -10 -12 -14 -19 -21 -32 0
-17 -24 -35 -42 -44 -10 -12 -14 -15 -19 -21 -22 -32 -33 -40 0
-44 -42 -35 -24 -17 -40 -33 -22 -15 -32 -21 -14 -19 -12 -10 0
-10 -12 -14 -16 -17 -19 -21 -23 -24 -32 -34 -35 -41 -42 -45 0
-17 -16 -14 -12 -10 -45 -42 -35 -24 -41 -34 -23 -32 -21 -19 0
-10 -24 -23 -21 -19 -17 -16 -14 -12 -45 -42 -35 -41 -34 -32 0
-19 -21 -23 -24 -10 -32 -34 -35 -12 -41 -42 -14 -45 -16 -17 0
-19 -12 -35 -34 -32 -10 -24 -23 -21 -17 -16 -14 -45 -42 -41 0
-32 -34 -35 -12 -19 -41 -42 -14 -21 -45 -16 -23 -17 -24 -10 0
-32 -21 -14 -42 -41 -19 -12 -35 -34 -10 -24 -23 -17 -16 -45 0
-41 -42 -14 -21 -32 -45 -16 -23 -34 -17 -24 -35 -10 -12 -19 0
-41 -34 -23 -16 -45 -32 -21 -14 -42 -19 -12 -35 -10 -24 -17 0
-45 -16 -23 -34 -41 -17 -24 -35 -42 -10 -12 -14 -19 -21 -32 0
-17 -24 -35 -42 -45 -10 -12 -14 -16 -19 -21 -23 -32 -34 -41 0
-45 -42 -35 -24 -17 -41 -34 -23 -16 -32 -21 -14 -19 -12 -10 0
-10 -12 -15 -16 -17 -19 -22 -23 -24 -33 -34 -35 -43 -44 -45 0
-17 -16 -15 -12 -10 -45 -44 -35 -24 -43 -34 -23 -33 -22 -19 0
-10 -24 -23 -22 -19 -17 -16 -15 -12 -45 -44 -35 -43 -34 -33 0
-19 -22 -23 -24 -10 -33 -34 -35 -12 -43 -44 -15 -45 -16 -17 0
-19 -12 -35 -34 -33 -10 -24 -23 -22 -17 -16 -15 -45 -44 -43 0
-33 -34 -35 -12 -19 -43 -44 -15 -22 -45 -16 -23 -17 -24 -10 0
-33 -22 -15 -44 -43 -19 -12 -35 -34 -10 -24 -23 -17 -16 -45 0
-43 -44 -15 -22 -33 -45 -16 -23 -34 -17 -24 -35 -10 -12 -19 0
-43 -34 -23 -16 -45 -33 -22 -15 -44 -19 -12 -35 -10 -24 -17 0
-45 -16 -23 -34 -43 -17 -24 -35 -44 -10 -12 -15 -19 -22 -33 0
-17 -24 -35 -44 -45 -10 -12 -15 -16 -19 -22 -23 -33 -34 -43 0
-45 -44 -35 -24 -17 -43 -34 -23 -16 -33 -22 -15 -19 -12 -10 0
-10 -13 -14 -15 -16 -20 -21 -22 -23 -36 -37 -38 -40 -41 -43 0
-16 -15 -14 -13 -10 -43 -41 -38 -23 -40 -37 -22 -36 -21 -20 0
-10 -23 -22 -21 -20 -16 -15 -14 -13 -43 -41 -38 -40 -37 -36 0
-20 -21 -22 -23 -10 -36 -37 -38 -13 -40 -41 -14 -43 -15 -16 0
-20 -13 -38 -37 -36 -10 -23 -22 -21 -16 -15 -14 -43 -41 -40 0
-36 -37 -38 -13 -20 -40 -41 -14 -21 -43 -15 -22 -16 -23 -10 0
-36 -21 -14 -41 -40 -20 -13 -38 -37 -10 -23 -22 -16 -15 -43 0
-40 -41 -14 -21 -36 -43 -15 -22 -37 -16 -23 -38 -10 -13 -20 0
-40 -37 -22 -15 -43 -36 -21 -14 -41 -20 -13 -38 -10 -23 -16 0
-43 -15 -22 -37 -40 -16 -23 -38 -41 -10 -13 -14 -20 -21 -36 0
-16 -23 -38 -41 -43 -10 -13 -14 -15 -20 -21 -22 -36 -37 -40 0
-43 -41 -38 -23 -16 -40 -37 -22 -15 -36 -21 -14 -20 -13 -10 0
-10 -13 -14 -15 -17 -20 -21 -22 -24 -36 -37 -39 -40 -42 -44 0
-17 -15 -14 -13 -10 -44 -42 -39 -24 -40 -37 -22 -36 -21 -20 0
-10 -24 -22 -21 -20 -17 -15 -14 -13 -44 -42 -39 -40 -37 -36 0
-20 -21 -22 -24 -10 -36 -37 -39 -13 -40 -42 -14 -44 -15 -17 0
-20 -13 -39 -37 -36 -10 -24 -22 -21 -17 -15 -14 -44 -42 -40 0
-36 -37 -39 -13 -20 -40 -42 -14 -21 -44 -15 -22 -17 -24 -10 0
-36 -21 -14 -42 -40 -20 -13 -39 -37 -10 -24 -22 -17 -15 -44 0
-40 -42 -14 -21 -36 -44 -15 -22 -37 -17 -24 -39 -10 -13 -20 0
-40 -37 -22 -15 -44 -36 -21 -14 -42 -20 -13 -39 -10 -24 -17 0
-44 -15 -22 -37 -40 -17 -24 -39 -42 -10 -13 -14 -20 -21 -36 0
-17 -24 -39 -42 -44 -10 -13 -14 -15 -20 -21 -22 -36 -37 -40 0
-44 -42 -39 -24 -17 -40 -37 -22 -15 -36 -21 -14 -20 -13 -10 0
-10 -13 -14 -16 -17 -20 -21 -23 -24 -36 -38 -39 -41 -42 -45 0
-17 -16 -14 -13 -10 -45 -42 -39 -24 -41 -38 -23 -36 -21 -20 0
-10 -24 -23 -21 -20 -17 -16 -14 -13 -45 -42 -39 -41 -38 -36 0
-20 -21 -23 -24 -10 -36 -38 -39 -13 -41 -42 -14 -45 -16 -17 0
-20 -13 -39 -38 -36 -10 -24 -23 -21 -17 -16 -14 -45 -42 -41 0
-36 -38 -39 -13 -20 -41 -42 -14 -21 -45 -16 -23 -17 -24 -10 0
-36 -21 -14 -42 -41 -20 -13 -39 -38 -10 -24 -23 -17 -16 -45 0
-41 -42 -14 -21 -36 -45 -16 -23 -38 -17 -24 -39 -10 -13 -20 0
-41 -38 -23 -16 -45 -36 -21 -14 -42 -20 -13 -39 -10 -24 -17 0
-45 -16 -23 -38 -41 -17 -24 -39 -42 -10 -13 -14 -20 -21 -36 0
-17 -24 -39 -42 -45 -10 -13 -14 -16 -20 -21 -23 -36 -38 -41 0
-45 -42 -39 -24 -17 -41 -38 -23 -16 -36 -21 -14 -20 -13 -10 0
-10 -13 -15 -16 -17 -20 -22 -23 -24 -37 -38 -39 -43 -44 -45 0
-17 -16 -15 -13 -10 -45 -44 -39 -24 -43 -38 -23 -37 -22 -20 0
-10 -24 -23 -22 -20 -17 -16 -15 -13 -45 -44 -39 -43 -38 -37 0
-20 -22 -23 -24 -10 -37 -38 -39 -13 -43 -44 -15 -45 -16 -17 0
-20 -13 -39 -38 -37 -10 -24 -23 -22 -17 -16 -15 -45 -44 -43 0
-37 -38 -39 -13 -20 -43 -44 -15 -22 -45 -16 -23 -17 -24 -10 0
-37 -22 -15 -44 -43 -20 -13 -39 -38 -10 -24 -23 -17 -16 -45 0
-43 -44 -15 -22 -37 -45 -16 -23 -38 -17 -24 -39 -10 -13 -20 0
-43 -38 -23 -16 -45 -37 -22 -15 -44 -20 -13 -39 -10 -24 -17 0
-45 -16 -23 -38 -43 -17 -24 -39 -44 -10 -13 -15 -20 -22 -37 0
-17 -24 -39 -44 -45 -10 -13 -15 -16 -20 -22 -23 -37 -38 -43 0
-45 -44 -39 -24 -17 -43 -38 -23 -16 -37 -22 -15 -20 -13 -10 0
-10 -14 -15 -16 -17 -21 -22 -23 -24 -40 -41 -42 -43 -44 -45 0
-17 -16 -15 -14 -10 -45 -44 -42 -24 -43 -41 -23 -40 -22 -21 0
-10 -24 -23 -22 -21 -17 -16 -15 -14 -45 -44 -42 -43 -41 -40 0
-21 -22 -23 -24 -10 -40 -41 -42 -14 -43 -44 -15 -45 -16 -17 0
-21 -14 -42 -41 -40 -10 -24 -23 -22 -17 -16 -15 -45 -44 -43 0
-40 -41 -42 -14 -21 -43 -44 -15 -22 -45 -16 -23 -17 -24 -10 0
-40 -22 -15 -44 -43 -21 -14 -42 -41 -10 -24 -23 -17 -16 -45 0
-43 -44 -15 -22 -40 -45 -16 -23 -41 -17 -24 -42 -10 -14 -21 0
-43 -41 -23 -16 -45 -40 -22 -15 -44 -21 -14 -42 -10 -24 -17 0
-45 -16 -23 -41 -43 -17 -24 -42 -44 -10 -14 -15 -21 -22 -40 0
-17 -24 -42 -44 -45 -10 -14 -15 -16 -21 -22 -23 -40 -41 -43 0
-45 -44 -42 -24 -17 -43 -41 -23 -16 -40 -22 -15 -21 -14 -10 0
-11 -12 -13 -14 -15 -25 -26 -27 -28 -31 -32 -33 -36 -37 -40 0
-15 -14 -13 -12 -11 -40 -37 -33 -28 -36 -32 -27 -31 -26 -25 0
-11 -28 -27 -26 -25 -15 -14 -13 -12 -40 -37 -33 -36 -32 -31 0
-25 -26 -27 -28 -11 -31 -32 -33 -12 -36 -37 -13 -40 -14 -15 0
-25 -12 -33 -32 -31 -11 -28 -27 -26 -15 -14 -13 -40 -37 -36 0
-31 -32 -33 -12 -25 -36 -37 -13 -26 -40 -14 -27 -15 -28 -11 0
-31 -26 -13 -37 -36 -25 -12 -33 -32 -11 -28 -27 -15 -14 -40 0
-36 -37 -13 -26 -31 -40 -14 -27 -32 -15 -28 -33 -11 -12 -25 0
-36 -32 -27 -14 -40 -31 -26 -13 -37 -25 -12 -33 -11 -28 -15 0
-40 -14 -27 -32 -36 -15 -28 -33 -37 -11 -12 -13 -25 -26 -31 0
-15 -28 -33 -37 -40 -11 -12 -13 -14 -25 -26 -27 -31 -32 -36 0
-40 -37 -33 -28 -15 -36 -32 -27 -14 -31 -26 -13 -25 -12 -11 0
-11 -12 -13 -14 -16 -25 -26 -27 -29 -31 -32 -34 -36 -38 -41 0
-16 -14 -13 -12 -11 -41 -38 -34 -29 -36 -32 -27 -31 -26 -25 0
-11 -29 -27 -26 -25 -16 -14 -13 -12 -41 -38 -34 -36 -32 -31 0
-25 -26 -27 -29 -11 -31 -32 -34 -12 -36 -38 -13 -41 -14 -16 0
-25 -12 -34 -32 -31 -11 -29 -27 -26 -16 -14 -13 -41 -38 -36 0
-31 -32 -34 -12 -25 -36 -38 -13 -26 -41 -14 -27 -16 -29 -11 0
-31 -26 -13 -38 -36 -25 -12 -34 -32 -11 -29 -27 -16 -14 -41 0
-36 -38 -13 -26 -31 -41 -14 -27 -32 -16 -29 -34 -11 -12 -25 0
-36 -32 -27 -14 -41 -31 -26 -13 -38 -25 -12 -34 -11 -29 -16 0
-41 -14 -27 -32 -36 -16 -29 -34 -38 -11 -12 -13 -25 -26 -31 0
-16 -29 -34 -38 -41 -11 -12 -13 -14 -25 -26 -27 -31 -32 -36 0
-41 -38 -34 -29 -16 -36 -32 -27 -14 -31 -26 -13 -25 -12 -11 0
-11 -12 -13 -14 -17 -25 -26 -27 -30 -31 -32 -35 -36 -39 -42 0
-17 -14 -13 -12 -11 -42 -39 -35 -30 -36 -32 -27 -31 -26 -25 0
-11 -30 -27 -26 -25 -17 -14 -13 -12 -42 -39 -35 -36 -32 -31 0
-25 -26 -27 -30 -11 -31 -32 -35 -12 -36 -39 -13 -42 -14 -17 0
-25 -12 -35 -32 -31 -11 -30 -27 -26 -17 -14 -13 -42 -39 -36 0
-31 -32 -35 -12 -25 -36 -39 -13 -26 -42 -14 -27 -17 -30 -11 0
-31 -26 -13 -39 -36 -25 -12 -35 -32 -11 -30 -27 -17 -14 -42 0
-36 -39 -13 -26 -31 -42 -14 -27 -32 -17 -30 -35 -11 -12 -25 0
-36 -32 -27 -14 -42 -31 -26 -13 -39 -25 -12 -35 -11 -30 -17 0
-42 -14 -27 -32 -36 -17 -30 -35 -39 -11 -12 -13 -25 -26 -31 0
-17 -30 -35 -39 -42 -11 -12 -13 -14 -25 -26 -27 -31 -32 -36 0
-42 -39 -35 -30 -17 -36 -32 -27 -14 -31 -26 -13 -25 -12 -11 0
-11 -12 -13 -15 -16 -25 -26 -28 -29 -31 -33 -34 -37 -38 -43 0
-16 -15 -13 -12 -11 -43 -38 -34 -29 -37 -33 -28 -31 -26 -25 0
-11 -29 -28 -26 -25 -16 -15 -13 -12 -43 -38 -34 -37 -33 -31 0
-25 -26 -28 -29 -11 -31 -33 -34 -12 -37 -38 -13 -43 -15 -16 0
-25 -12 -34 -33 -31 -11 -29 -28 -26 -16 -15 -13 -43 -38 -37 0
-31 -33 -34 -12 -25 -37 -38 -13 -26 -43 -15 -28 -16 -29 -11 0
-31 -26 -13 -38 -37 -25 -12 -34 -33 -11 -29 -28 -16 -15 -43 0
-37 -38 -13 -26 -31 -43 -15 -28 -33 -16 -29 -34 -11 -12 -25 0
-37 -33 -28 -15 -43 -31 -26 -13 -38 -25 -12 -34 -11 -29 -16 0
-43 -15 -28 -33 -37 -16 -29 -34 -38 -11 -12 -13 -25 -26 -31 0
-16 -29 -34 -38 -43 -11 -12 -13 -15 -25 -26 -28 -31 -33 -37 0
-43 -38 -34 -29 -16 -37 -33 -28 -15 -31 -26 -13 -25 -12 -11 0
-11 -12 -13 -15 -17 -25 -26 -28 -30 -31 -33 -35 -37 -39 -44 0
-17 -15 -13 -12 -11 -44 -39 -35 -30 -37 -33 -28 -31 -26 -25 0
-11 -30 -28 -26 -25 -17 -15 -13 -12 -44 -39 -35 -37 -33 -31 0
-25 -26 -28 -30 -11 -31 -33 -35 -12 -37 -39 -13 -44 -15 -17 0
-25 -12 -35 -33 -31 -11 -30 -28 -26 -17 -15 -13 -44 -39 -37 0
-31 -33 -35 -12 -25 -37 -39 -13 -26 -44 -15 -28 -17 -30 -11 0
-31 -26 -13 -39 -37 -25 -12 -35 -33 -11 -30 -28 -17 -15 -44 0
-37 -39 -13 -26 -31 -44 -15 -28 -33 -17 -30 -35 -11 -12 -25 0
-37 -33 -28 -15 -44 -31 -26 -13 -39 -25 -12 -35 -11 -30 -17 0
-44 -15 -28 -33 -37 -17 -30 -35 -39 -11 -12 -13 -25 -26 -31 0
-17 -30 -35 -39 -44 -11 -12 -13 -15 -25 -26 -28 -31 -33 -37 0
-44 -39 -35 -30 -17 -37 -33 -28 -15 -31 -26 -13 -25 -12 -11 0
-11 -12 -13 -16 -17 -25 -26 -29 -30 -31 -34 -35 -38 -39 -45 0
-17 -16 -13 -12 -11 -45 -39 -35 -30 -38 -34 -29 -31 -26 -25 0
-11 -30 -29 -26 -25 -17 -16 -13 -12 -45 -39 -35 -38 -34 -31 0
-25 -26 -29 -30 -11 -31 -34 -35 -12 -38 -39 -13 -45 -16 -17 0
-25 -12 -35 -34 -31 -11 -30 -29 -26 -17 -16 -13 -45 -39 -38 0
-31 -34 -35 -12 -25 -38 -39 -13 -26 -45 -16 -29 -17 -30 -11 0
-31 -26 -13 -39 -38 -25 -12 -35 -34 -11 -30 -29 -17 -16 -45 0
-38 -39 -13 -26 -31 -45 -16 -29 -34 -17 -30 -35 -11 -12 -25 0
-38 -34 -29 -16 -45 -31 -26 -13 -39 -25 -12 -35 -11 -30 -17 0
-45 -16 -29 -34 -38 -17 -30 -35 -39 -11 -12 -13 -25 -26 -31 0
-17 -30 -35 -39 -45 -11 -12 -13 -16 -25 -26 -29 -31 -34 -38 0
-45 -39 -35 -30 -17 -38 -34 -29 -16 -31 -26 -13 -25 -12 -11 0
-11 -12 -14 -15 -16 -25 -27 -28 -29 -32 -33 -34 -40 -41 -43 0
-16 -15 -14 -12 -11 -43 -41 -34 -29 -40 -33 -28 -32 -27 -25 0
-11 -29 -28 -27 -25 -16 -15 -14 -12 -43 -41 -34 -40 -33 -32 0
-25 -27 -28 -29 -11 -32 -33 -34 -12 -40 -41 -14 -43 -15 -16 0
-25 -12 -34 -33 -32 -11 -29 -28 -27 -16 -15 -14 -43 -41 -40 0
-32 -33 -34 -12 -25 -40 -41 -14 -27 -43 -15 -28 -16 -29 -11 0
-32 -27 -14 -41 -40 -25 -12 -34 -33 -11 -29 -28 -16 -15 -43 0
-40 -41 -14 -27 -32 -43 -15 -28 -33 -16 -29 -34 -11 -12 -25 0
-40 -33 -28 -15 -43 -32 -27 -14 -41 -25 -12 -34 -11 -29 -16 0
-43 -15 -28 -33 -40 -16 -29 -34 -41 -11 -12 -14 -25 -27 -32 0
-16 -29 -34 -41 -43 -11 -12 -14 -15 -25 -27 -28 -32 -33 -40 0
-43 -41 -34 -29 -16 -40 -33 -28 -15 -32 -27 -14 -25 -12 -11 0
-11 -12 -14 -15 -17 -25 -27 -28 -30 -32 -33 -35 -40 -42 -44 0
-17 -15 -14 -12 -11 -44 -42 -35 -30 -40 -33 -28 -32 -27 -25 0
-11 -30 -28 -27 -25 -17 -15 -14 -12 -44 -42 -35 -40 -33 -32 0
-25 -27 -28 -30 -11 -32 -33 -35 -12 -40 -42 -14 -44 -15 -17 0
-25 -12 -35 -33 -32 -11 -30 -28 -27 -17 -15 -14 -44 -42 -40 0
-32 -33 -35 -12 -25 -40 -42 -14 -27 -44 -15 -28 -17 -30 -11 0
-32 -27 -14 -42 -40 -25 -12 -35 -33 -11 -30 -28 -17 -15 -44 0
-40 -42 -14 -27 -32 -44 -15 -28 -33 -17 -30 -35 -11 -12 -25 0
-40 -33 -28 -15 -44 -32 -27 -14 -42 -25 -12 -35 -11 -30 -17 0
-44 -15 -28 -33 -40 -17 -30 -35 -42 -11 -12 -14 -25 -27 -32 0
-17 -30 -35 -42 -44 -11 -12 -14 -15 -25 -27 -28 -32 -33 -40 0
-44 -42 -35 -30 -17 -40 -33 -28 -15 -32 -27 -14 -25 -12 -11 0
-11 -12 -14 -16 -17 -25 -27 -29 -30 -32 -34 -35 -41 -42 -45 0
-17 -16 -14 -12 -11 -45 -42 -35 -30 -41 -34 -29 -32 -27 -25 0
-11 -30 -29 -27 -25 -17 -16 -14 -12 -45 -42 -35 -41 -34 -32 0
-25 -27 -29 -30 -11 -32 -34 -35 -12 -41 -42 -14 -45 -16 -17 0
-25 -12 -35 -34 -32 -11 -30 -29 -27 -17 -16 -14 -45 -42 -41 0
-32 -34 -35 -12 -25 -41 -42 -14 -27 -45 -16 -29 -17 -30 -11 0
-32 -27 -14 -42 -41 -25 -12 -35 -34 -11 -30 -29 -17 -16 -45 0
-41 -42 -14 -27 -32 -45 -16 -29 -34 -17 -30 -35 -11 -12 -25 0
-41 -34 -29 -16 -45 -32 -27 -14 -42 -25 -12 -35 -11 -30 -17 0
-45 -16 -29 -34 -41 -17 -30 -35 -42 -11 -12 -14 -25 -27 -32 0
-17 -30 -35 -42 -45 -11 -12 -14 -16 -25 -27 -29 -32 -34 -41 0
-45 -42 -35 -30 -17 -41 -34 -29 -16 -32 -27 -14 -25 -12 -11 0
-11 -12 -15 -16 -17 -25 -28 -29 -30 -33 -34 -35 -43 -44 -45 0
-17 -16 -15 -12 -11 -45 -44 -35 -30 -43 -34 -29 -33 -28 -25 0
-11 -30 -29 -28 -25 -17 -16 -15 -12 -45 -44 -35 -43 -34 -33 0
-25 -28 -29 -30 -11 -33 -34 -35 -12 -43 -44 -15 -45 -16 -17 0
-25 -12 -35 -34 -33 -11 -30 -29 -28 -17 -16 -15 -45 -44 -43 0
-33 -34 -35 -12 -25 -43 -44 -15 -28 -45 -16 -29 -17 -30 -11 0
-33 -28 -15 -44 -43 -25 -12 -35 -34 -11 -30 -29 -17 -16 -45 0
-43 -44 -15 -28 -33 -45 -16 -29 -34 -17 -30 -35 -11 -12 -25 0
-43 -34 -29 -16 -45 -33 -28 -15 -44 -25 -12 -35 -11 -30 -17 0
-45 -16 -29 -34 -43 -17 -30 -35 -44 -11 -12 -15 -25 -28 -33 0
-17 -30 -35 -44 -45 -11 -12 -15 -16 -25 -28 -29 -33 -34 -43 0
-45 -44 -35 -30 -17 -43 -34 -29 -16 -33 -28 -15 -25 -12 -11 0
-11 -13 -14 -15 -16 -26 -27 -28 -29 -36 -37 -38 -40 -41 -43 0
-16 -15 -14 -13 -11 -43 -41 -38 -29 -40 -37 -28 -36 -27 -26 0
-11 -29 -28 -27 -26 -16 -15 -14 -13 -43 -41 -38 -40 -37 -36 0
-26 -27 -28 -29 -11 -36 -37 -38 -13 -40 -41 -14 -43 -15 -16 0
-26 -13 -38 -37 -36 -11 -29 -28 -27 -16 -15 -14 -43 -41 -40 0
-36 -37 -38 -13 -26 -40 -41 -14 -27 -43 -15 -28 -16 -29 -11 0
-36 -27 -14 -41 -40 -26 -13 -38 -37 -11 -29 -28 -16 -15 -43 0
-40 -41 -14 -27 -36 -43 -15 -28 -37 -16 -29 -38 -11 -13 -26 0
-40 -37 -28 -15 -43 -36 -27 -14 -41 -26 -13 -38 -11 -29 -16 0
-43 -15 -28 -37 -40 -16 -29 -38 -41 -11 -13 -14 -26 -27 -36 0
-16 -29 -38 -41 -43 -11 -13 -14 -15 -26 -27 -28 -36 -37 -40 0
-43 -41 -38 -29 -16 -40 -37 -28 -15 -36 -27 -14 -26 -13 -11 0
-11 -13 -14 -15 -17 -26 -27 -28 -30 -36 -37 -39 -40 -42 -44 0
-17 -15 -14 -13 -11 -44 -42 -39 -30 -40 -37 -28 -36 -27 -26 0
-11 -30 -28 -27 -26 -17 -15 -14 -13 -44 -42 -39 -40 -37 -36 0
-26 -27 -28 -30 -11 -36 -37 -39 -13 -40 -42 -14 -44 -15 -17 0
-26 -13 -39 -37 -36 -11 -30 -28 -27 -17 -15 -14 -44 -42 -40 0
-36 -37 -39 -13 -26 -40 -42 -14 -27 -44 -15 -28 -17 -30 -11 0
-36 -27 -14 -42 -40 -26 -13 -39 -37 -11 -30 -28 -17 -15 -44 0
-40 -42 -14 -27 -36 -44 -15 -28 -37 -17 -30 -39 -11 -13 -26 0
-40 -37 -28 -15 -44 -36 -27 -14 -42 -26 -13 -39 -11 -30 -17 0
-44 -15 -28 -37 -40 -17 -30 -39 -42 -11 -13 -14 -26 -27 -36 0
-17 -30 -39 -42 -44 -11 -13 -14 -15 -26 -27 -28 -36 -37 -40 0
-44 -42 -39 -30 -17 -40 -37 -28 -15 -36 -27 -14 -26 -13 -11 0
-11 -13 -14 -16 -17 -26 -27 -29 -30 -36 -38 -39 -41 -42 -45 0
-17 -16 -14 -13 -11 -45 -42 -39 -30 -41 -38 -29 -36 -27 -26 0
-11 -30 -29 -27 -26 -17 -16 -14 -13 -45 -42 -39 -41 -38 -36 0
-26 -27 -29 -30 -11 -36 -38 -39 -13 -41 -42 -14 -45 -16 -17 0
-26 -13 -39 -38 -36 -11 -30 -29 -27 -17 -16 -14 -45 -42 -41 0
-36 -38 -39 -13 -26 -41 -42 -14 -27 -45 -16 -29 -17 -30 -11 0
-36 -27 -14 -42 -41 -26 -13 -39 -38 -11 -30 -29 -17 -16 -45 0
-41 -42 -14 -27 -36 -45 -16 -29 -38 -17 -30 -39 -11 -13 -26 0
-41 -38 -29 -16 -45 -36 -27 -14 -42 -26 -13 -39 -11 -30 -17 0
-45 -16 -29 -38 -41 -17 -30 -39 -42 -11 -13 -14 -26 -27 -36 0
-17 -30 -39 -42 -45 -11 -13 -14 -16 -26 -27 -29 -36 -38 -41 0
-45 -42 -39 -30 -17 -41 -38 -29 -16 -36 -27 -14 -26 -13 -11 0
-11 -13 -15 -16 -17 -26 -28 -29 -30 -37 -38 -39 -43 -44 -45 0
-17 -16 -15 -13 -11 -45 -44 -39 -30 -43 -38 -29 -37 -28 -26 0
-11 -30 -29 -28 -26 -17 -16 -15 -13 -45 -44 -39 -43 -38 -37 0
-26 -28 -29 -30 -11 -37 -38 -39 -13 -43 -44 -15 -45 -16 -17 0
-26 -13 -39 -38 -37 -11 -30 -29 -28 -17 -16 -15 -45 -44 -43 0
-37 -38 -39 -13 -26 -43 -44 -15 -28 -45 -16 -29 -17 -30 -11 0
-37 -28 -15 -44 -43 -26 -13 -39 -38 -11 -30 -29 -17 -16 -45 0
-43 -44 -15 -28 -37 -45 -16 -29 -38 -17 -30 -39 -11 -13 -26 0
-43 -38 -29 -16 -45 -37 -28 -15 -44 -26 -13 -39 -11 -30 -17 0
-45 -16 -29 -38 -43 -17 -30 -39 -44 -11 -13 -15 -26 -28 -37 0
-17 -30 -39 -44 -45 -11 -13 -15 -16 -26 -28 -29 -37 -38 -43 0
-45 -44 -39 -30 -17 -43 -38 -29 -16 -37 -28 -15 -26 -13 -11 0
-11 -14 -15 -16 -17 -27 -28 -29 -30 -40 -41 -42 -43 -44 -45 0
-17 -16 -15 -14 -11 -45 -44 -42 -30 -43 -41 -29 -40 -28 -27 0
-11 -30 -29 -28 -27 -17 -16 -15 -14 -45 -44 -42 -43 -41 -40 0
-27 -28 -29 -30 -11 -40 -41 -42 -14 -43 -44 -15 -45 -16 -17 0
-27 -14 -42 -41 -40 -11 -30 -29 -28 -17 -16 -15 -45 -44 -43 0
-40 -41 -42 -14 -27 -43 -44 -15 -28 -45 -16 -29 -17 -30 -11 0
-40 -28 -15 -44 -43 -27 -14 -42 -41 -11 -30 -29 -17 -16 -45 0
-43 -44 -15 -28 -40 -45 -16 -29 -41 -17 -30 -42 -11 -14 -27 0
-43 -41 -29 -16 -45 -40 -28 -15 -44 -27 -14 -42 -11 -30 -17 0
-45 -16 -29 -41 -43 -17 -30 -42 -44 -11 -14 -15 -27 -28 -40 0
-17 -30 -42 -44 -45 -11 -14 -15 -16 -27 -28 -29 -40 -41 -43 0
-45 -44 -42 -30 -17 -43 -41 -29 -16 -40 -28 -15 -27 -14 -11 0
-12 -13 -14 -15 -16 -31 -32 -33 -34 -36 -37 -38 -40 -41 -43 0
-16 -15 -14 -13 -12 -43 -41 -38 -34 -40 -37 -33 -36 -32 -31 0
-12 -34 -33 -32 -31 -16 -15 -14 -13 -43 -41 -38 -40 -37 -36 0
-31 -32 -33 -34 -12 -36 -37 -38 -13 -40 -41 -14 -43 -15 -16 0
-31 -13 -38 -37 -36 -12 -34 -33 -32 -16 -15 -14 -43 -41 -40 0
-36 -37 -38 -13 -31 -40 -41 -14 -32 -43 -15 -33 -16 -34 -12 0
-36 -32 -14 -41 -40 -31 -13 -38 -37 -12 -34 -33 -16 -15 -43 0
-40 -41 -14 -32 -36 -43 -15 -33 -37 -16 -34 -38 -12 -13 -31 0
-40 -37 -33 -15 -43 -36 -32 -14 -41 -31 -13 -38 -12 -34 -16 0
-43 -15 -33 -37 -40 -16 -34 -38 -41 -12 -13 -14 -31 -32 -36 0
-16 -34 -38 -41 -43 -12 -13 -14 -15 -31 -32 -33 -36 -37 -40 0
-43 -41 -38 -34 -16 -40 -37 -33 -15 -36 -32 -14 -31 -13 -12 0
-12 -13 -14 -15 -17 -31 -32 -33 -35 -36 -37 -39 -40 -42 -44 0
-17 -15 -14 -13 -12 -44 -42 -39 -35 -40 -37 -33 -36 -32 -31 0
-12 -35 -33 -32 -31 -17 -15 -14 -13 -44 -42 -39 -40 -37 -36 0
-31 -32 -33 -35 -12 -36 -37 -39 -13 -40 -42 -14 -44 -15 -17 0
-31 -13 -39 -37 -36 -12 -35 -33 -32 -17 -15 -14 -44 -42 -40 0
-36 -37 -39 -13 -31 -40 -42 -14 -32 -44 -15 -33 -17 -35 -12 0
-36 -32 -14 -42 -40 -31 -13 -39 -37 -12 -35 -33 -17 -15 -44 0
-40 -42 -14 -32 -36 -44 -15 -33 -37 -17 -35 -39 -12 -13 -31 0
-40 -37 -33 -15 -44 -36 -32 -14 -42 -31 -13 -39 -12 -35 -17 0
-44 -15 -33 -37 -40 -17 -35 -39 -42 -12 -13 -14 -31 -32 -36 0
-17 -35 -39 -42 -44 -12 -13 -14 -15 -31 -32 -33 -36 -37 -40 0
-44 -42 -39 -35 -17 -40 -37 -33 -15 -36 -32 -14 -31 -13 -12 0
-12 -13 -14 -16 -17 -31 -32 -34 -35 -36 -38 -39 -41 -42 -45 0
-17 -16 -14 -13 -12 -45 -42 -39 -35 -41 -38 -34 -36 -32 -31 0
-12 -35 -34 -32 -31 -17 -16 -14 -13 -45 -42 -39 -41 -38 -36 0
-31 -32 -34 -35 -12 -36 -38 -39 -13 -41 -42 -14 -45 -16 -17 0
-31 -13 -39 -38 -36 -12 -35 -34 -32 -17 -16 -14 -45 -42 -41 0
-36 -38 -39 -13 -31 -41 -42 -14 -32 -45 -16 -34 -17 -35 -12 0
-36 -32 -14 -42 -41 -31 -13 -39 -38 -12 -35 -34 -17 -16 -45 0
-41 -42 -14 -32 -36 -45 -16 -34 -38 -17 -35 -39 -12 -13 -31 0
-41 -38 -34 -16 -45 -36 -32 -14 -42 -31 -13 -39 -12 -35 -17 0
-45 -16 -34 -38 -41 -17 -35 -39 -42 -12 -13 -14 -31 -32 -36 0
-17 -35 -39 -42 -45 -12 -13 -14 -16 -31 -32 -34 -36 -38 -41 0
-45 -42 -39 -35 -17 -41 -38 -34 -16 -36 -32 -14 -31 -13 -12 0
-12 -13 -15 -16 -17 -31 -33 -34 -35 -37 -38 -39 -43 -44 -45 0
-17 -16 -15 -13 -12 -45 -44 -39 -35 -43 -38 -34 -37 -33 -31 0
-12 -35 -34 -33 -31 -17 -16 -15 -13 -45 -44 -39 -43 -38 -37 0
-31 -33 -34 -35 -12 -37 -38 -39 -13 -43 -44 -15 -45 -16 -17 0
-31 -13 -39 -38 -37 -12 -35 -34 -33 -17 -16 -15 -45 -44 -43 0
-37 -38 -39 -13 -31 -43 -44 -15 -33 -45 -16 -34 -17 -35 -12 0
-37 -33 -15 -44 -43 -31 -13 -39 -38 -12 -35 -34 -17 -16 -45 0
-43 -44 -15 -33 -37 -45 -16 -34 -38 -17 -35 -39 -12 -13 -31 0
-43 -38 -34 -16 -45 -37 -33 -15 -44 -31 -13 -39 -12 -35 -17 0
-45 -16 -34 -38 -43 -17 -35 -39 -44 -12 -13 -15 -31 -33 -37 0
-17 -35 -39 -44 -45 -12 -13 -15 -16 -31 -33 -34 -37 -38 -43 0
-45 -44 -39 -35 -17 -43 -38 -34 -16 -37 -33 -15 -31 -13 -12 0
-12 -14 -15 -16 -17 -32 -33 -34 -35 -40 -41 -42 -43 -44 -45 0
-17 -16 -15 -14 -12 -45 -44 -42 -35 -43 -41 -34 -40 -33 -32 0
-12 -35 -34 -33 -32 -17 -16 -15 -14 -45 -44 -42 -43 -41 -40 0
-32 -33 -34 -35 -12 -40 -41 -42 -14 -43 -44 -15 -45 -16 -17 0
-32 -14 -42 -41 -40 -12 -35 -34 -33 -17 -16 -15 -45 -44 -43 0
-40 -41 -42 -14 -32 -43 -44 -15 -33 -45 -16 -34 -17 -35 -12 0
-40 -33 -15 -44 -43 -32 -14 -42 -41 -12 -35 -34 -17 -16 -45 0
-43 -44 -15 -33 -40 -45 -16 -34 -41 -17 -35 -42 -12 -14 -32 0
-43 -41 -34 -16 -45 -40 -33 -15 -44 -32 -14 -42 -12 -35 -17 0
-45 -16 -34 -41 -43 -17 -35 -42 -44 -12 -14 -15 -32 -33 -40 0
-17 -35 -42 -44 -45 -12 -14 -15 -16 -32 -33 -34 -40 -41 -43 0
-45 -44 -42 -35 -17 -43 -41 -34 -16 -40 -33 -15 -32 -14 -12 0
-13 -14 -15 -16 -17 -36 -37 -38 -39 -40 -41 -42 -43 -44 -45 0
-17 -16 -15 -14 -13 -45 -44 -42 -39 -43 -41 -38 -40 -37 -36 0
-13 -39 -38 -37 -36 -17 -16 -15 -14 -45 -44 -42 -43 -41 -40 0
-36 -37 -38 -39 -13 -40 -41 -42 -14 -43 -44 -15 -45 -16 -17 0
-36 -14 -42 -41 -40 -13 -39 -38 -37 -17 -16 -15 -45 -44 -43 0
-40 -41 -42 -14 -36 -43 -44 -15 -37 -45 -16 -38 -17 -39 -13 0
-40 -37 -15 -44 -43 -36 -14 -42 -41 -13 -39 -38 -17 -16 -45 0
-43 -44 -15 -37 -40 -45 -16 -38 -41 -17 -39 -42 -13 -14 -36 0
-43 -41 -38 -16 -45 -40 -37 -15 -44 -36 -14 -42 -13 -39 -17 0
-45 -16 -38 -41 -43 -17 -39 -42 -44 -13 -14 -15 -36 -37 -40 0
-17 -39 -42 -44 -45 -13 -14 -15 -16 -36 -37 -38 -40 -41 -43 0
-45 -44 -42 -39 -17 -43 -41 -38 -16 -40 -37 -15 -36 -14 -13 0
-18 -19 -20 -21 -22 -25 -26 -27 -28 -31 -32 -33 -36 -37 -40 0
-22 -21 -20 -19 -18 -40 -37 -33 -28 -36 -32 -27 -31 -26 -25 0
-18 -28 -27 -26 -25 -22 -21 -20 -19 -40 -37 -33 -36 -32 -31 0
-25 -26 -27 -28 -18 -31 -32 -33 -19 -36 -37 -20 -40 -21 -22 0
-25 -19 -33 -32 -31 -18 -28 -27 -26 -22 -21 -20 -40 -37 -36 0
-31 -32 -33 -19 -25 -36 -37 -20 -26 -40 -21 -27 -22 -28 -18 0
-31 -26 -20 -37 -36 -25 -19 -33 -32 -18 -28 -27 -22 -21 -40 0
-36 -37 -20 -26 -31 -40 -21 -27 -32 -22 -28 -33 -18 -19 -25 0
-36 -32 -27 -21 -40 -31 -26 -20 -37 -25 -19 -33 -18 -28 -22 0
-40 -21 -27 -32 -36 -22 -28 -33 -37 -18 -19 -20 -25 -26 -31 0
-22 -28 -33 -37 -40 -18 -19 -20 -21 -25 -26 -27 -31 -32 -36 0
-40 -37 -33 -28 -22 -36 -32 -27 -21 -31 -26 -20 -25 -19 -18 0
-18 -19 -20 -21 -23 -25 -26 -27 -29 -31 -32 -34 -36 -38 -41 0
-23 -21 -20 -19 -18 -41 -38 -34 -29 -36 -32 -27 -31 -26 -25 0
-18 -29 -27 -26 -25 -23 -21 -20 -19 -41 -38 -34 -36 -32 -31 0
-25 -26 -27 -29 -18 -31 -32 -34 -19 -36 -38 -20 -41 -21 -23 0
-25 -19 -34 -32 -31 -18 -29 -27 -26 -23 -21 -20 -41 -38 -36 0
-31 -32 -34 -19 -25 -36 -38 -20 -26 -41 -21 -27 -23 -29 -18 0
-31 -26 -20 -38 -36 -25 -19 -34 -32 -18 -29 -27 -23 -21 -41 0
-36 -38 -20 -26 -31 -41 -21 -27 -32 -23 -29 -34 -18 -19 -25 0
-36 -32 -27 -21 -41 -31 -26 -20 -38 -25 -19 -34 -18 -29 -23 0
-41 -21 -27 -32 -36 -23 -29 -34 -38 -18 -19 -20 -25 -26 -31 0
-23 -29 -34 -38 -41 -18 -19 -20 -21 -25 -26 -27 -31 -32 -36 0
-41 -38 -34 -29 -23 -36 -32 -27 -21 -31 -26 -20 -25 -19 -18 0
-18 -19 -20 -21 -24 -25 -26 -27 -30 -31 -32 -35 -36 -39 -42 0
-24 -21 -20 -19 -18 -42 -39 -35 -30 -36 -32 -27 -31 -26 -25 0
-18 -30 -27 -26 -25 -24 -21 -20 -19 -42 -39 -35 -36 -32 -31 0
-25 -26 -27 -30 -18 -31 -32 -35 -19 -36 -39 -20 -42 -21 -24 0
-25 -19 -35 -32 -31 -18 -30 -27 -26 -24 -21 -20 -42 -39 -36 0
-31 -32 -35 -19 -25 -36 -39 -20 -26 -42 -21 -27 -24 -30 -18 0
-31 -26 -20 -39 -36 -25 -19 -35 -32 -18 -30 -27 -24 -21 -42 0
-36 -39 -20 -26 -31 -42 -21 -27 -32 -24 -30 -35 -18 -19 -25 0
-36 -32 -27 -21 -42 -31 -26 -20 -39 -25 -19 -35 -18 -30 -24 0
-42 -21 -27 -32 -36 -24 -30 -35 -39 -18 -19 -20 -25 -26 -31 0
-24 -30 -35 -39 -42 -18 -19 -20 -21 -25 -26 -27 -31 -32 -36 0
-42 -39 -35 -30 -24 -36 -32 -27 -21 -31 -26 -20 -25 -19 -18 0
-18 -19 -20 -22 -23 -25 -26 -28 -29 -31 -33 -34 -37 -38 -43 0
-23 -22 -20 -19 -18 -43 -38 -34 -29 -37 -33 -28 -31 -26 -25 0
-18 -29 -28 -26 -25 -23 -22 -20 -19 -43 -38 -34 -37 -33 -31 0
-25 -26 -28 -29 -18 -31 -33 -34 -19 -37 -38 -20 -43 -22 -23 0
-25 -19 -34 -33 -31 -18 -29 -28 -26 -23 -22 -20 -43 -38 -37 0
-31 -33 -34 -19 -25 -37 -38 -20 -26 -43 -22 -28 -23 -29 -18 0
-31 -26 -20 -38 -37 -25 -19 -34 -33 -18 -29 -28 -23 -22 -43 0
-37 -38 -20 -26 -31 -43 -22 -28 -33 -23 -29 -34 -18 -19 -25 0
-37 -33 -28 -22 -43 -31 -26 -20 -38 -25 -19 -34 -18 -29 -23 0
-43 -22 -28 -33 -37 -23 -29 -34 -38 -18 -19 -20 -25 -26 -31 0
-23 -29 -34 -38 -43 -18 -19 -20 -22 -25 -26 -28 -31 -33 -37 0
-43 -38 -34 -29 -23 -37 -33 -28 -22 -31 -26 -20 -25 -19 -18 0
-18 -19 -20 -22 -24 -25 -26 -28 -30 -31 -33 -35 -37 -39 -44 0
-24 -22 -20 -19 -18 -44 -39 -35 -30 -37 -33 -28 -31 -26 -25 0
-18 -30 -28 -26 -25 -24 -22 -20 -19 -44 -39 -35 -37 -33 -31 0
-25 -26 -28 -30 -18 -31 -33 -35 -19 -37 -39 -20 -44 -22 -24 0
-25 -19 -35 -33 -31 -18 -30 -28 -26 -24 -22 -20 -44 -39 -37 0
-31 -33 -35 -19 -25 -37 -39 -20 -26 -44 -22 -28 -24 -30 -18 0
-31 -26 -20 -39 -37 -25 -19 -35 -33 -18 -30 -28 -24 -22 -44 0
-37 -39 -20 -26 -31 -44 -22 -28 -33 -24 -30 -35 -18 -19 -25 0
-37 -33 -28 -22 -44 -31 -26 -20 -39 -25 -19 -35 -18 -30 -24 0
-44 -22 -28 -33 -37 -24 -30 -35 -39 -18 -19 -20 -25 -26 -31 0
-24 -30 -35 -39 -44 -18 -19 -20 -22 -25 -26 -28 -31 -33 -37 0
-44 -39 -35 -30 -24 -37 -33 -28 -22 -31 -26 -20 -25 -19 -18 0
-18 -19 -20 -23 -24 -25 -26 -29 -30 -31 -34 -35 -38 -39 -45 0
-24 -23 -20 -19 -18 -45 -39 -35 -30 -38 -34 -29 -31 -26 -25 0
-18 -30 -29 -26 -25 -24 -23 -20 -19 -45 -39 -35 -38 -34 -31 0
-25 -26 -29 -30 -18 -31 -34 -35 -19 -38 -39 -20 -45 -23 -24 0
-25 -19 -35 -34 -31 -18 -30 -29 -26 -24 -23 -20 -45 -39 -38 0
-31 -34 -35 -19 -25 -38 -39 -20 -26 -45 -23 -29 -24 -30 -18 0
-31 -26 -20 -39 -38 -25 -19 -35 -34 -18 -30 -29 -24 -23 -45 0
-38 -39 -20 -26 -31 -45 -23 -29 -34 -24 -30 -35 -18 -19 -25 0
-38 -34 -29 -23 -45 -31 -26 -20 -39 -25 -19 -35 -18 -30 -24 0
-45 -23 -29 -34 -38 -24 -30 -35 -39 -18 -19 -20 -25 -26 -31 0
-24 -30 -35 -39 -45 -18 -19 -20 -23 -25 -26 -29 -31 -34 -38 0
-45 -39 -35 -30 -24 -38 -34 -29 -23 -31 -26 -20 -25 -19 -18 0
-18 -19 -21 -22 -23 -25 -27 -28 -29 -32 -33 -34 -40 -41 -43 0
-23 -22 -21 -19 -18 -43 -41 -34 -29 -40 -33 -28 -32 -27 -25 0
-18 -29 -28 -27 -25 -23 -22 -21 -19 -43 -41 -34 -40 -33 -32 0
-25 -27 -28 -29 -18 -32 -33 -34 -19 -40 -41 -21 -43 -22 -23 0
-25 -19 -34 -33 -32 -18 -29 -28 -27 -23 -22 -21 -43 -41 -40 0
-32 -33 -34 -19 -25 -40 -41 -21 -27 -43 -22 -28 -23 -29 -18 0
-32 -27 -21 -41 -40 -25 -19 -34 -33 -18 -29 -28 -23 -22 -43 0
-40 -41 -21 -27 -32 -43 -22 -28 -33 -23 -29 -34 -18 -19 -25 0
-40 -33 -28 -22 -43 -32 -27 -21 -41 -25 -19 -34 -18 -29 -23 0
-43 -22 -28 -33 -40 -23 -29 -34 -41 -18 -19 -21 -25 -27 -32 0
-23 -29 -34 -41 -43 -18 -19 -21 -22 -25 -27 -28 -32 -33 -40 0
-43 -41 -34 -29 -23 -40 -33 -28 -22 -32 -27 -21 -25 -19 -18 0
-18 -19 -21 -22 -24 -25 -27 -28 -30 -32 -33 -35 -40 -42 -44 0
-24 -22 -21 -19 -18 -44 -42 -35 -30 -40 -33 -28 -32 -27 -25 0
-18 -30 -28 -27 -25 -24 -22 -21 -19 -44 -42 -35 -40 -33 -32 0
-25 -27 -28 -30 -18 -32 -33 -35 -19 -40 -42 -21 -44 -22 -24 0
-25 -19 -35 -33 -32 -18 -30 -28 -27 -24 -22 -21 -44 -42 -40 0
-32 -33 -35 -19 -25 -40 -42 -21 -27 -44 -22 -28 -24 -30 -18 0
-32 -27 -21 -42 -40 -25 -19 -35 -33 -18 -30 -28 -24 -22 -44 0
-40 -42 -21 -27 -32 -44 -22 -28 -33 -24 -30 -35 -18 -19 -25 0
-40 -33 -28 -22 -44 -32 -27 -21 -42 -25 -19 -35 -18 -30 -24 0
-44 -22 -28 -33 -40 -24 -30 -35 -42 -18 -19 -21 -25 -27 -32 0
-24 -30 -35 -42 -44 -18 -19 -21 -22 -25 -27 -28 -32 -33 -40 0
-44 -42 -35 -30 -24 -40 -33 -28 -22 -32 -27 -21 -25 -19 -18 0
-18 -19 -21 -23 -24 -25 -27 -29 -30 -32 -34 -35 -41 -42 -45 0
-24 -23 -21 -19 -18 -45 -42 -35 -30 -41 -34 -29 -32 -27 -25 0
-18 -30 -29 -27 -25 -24 -23 -21 -19 -45 -42 -35 -41 -34 -32 0
-25 -27 -29 -30 -18 -32 -34 -35 -19 -41 -42 -21 -45 -23 -24 0
-25 -19 -35 -34 -32 -18 -30 -29 -27 -24 -23 -21 -45 -42 -41 0
-32 -34 -35 -19 -25 -41 -42 -21 -27 -45 -23 -29 -24 -30 -18 0
-32 -27 -21 -42 -41 -25 -19 -35 -34 -18 -30 -29 -24 -23 -45 0
-41 -42 -21 -27 -32 -45 -23 -29 -34 -24 -30 -35 -18 -19 -25 0
-41 -34 -29 -23 -45 -32 -27 -21 -42 -25 -19 -35 -18 -30 -24 0
-45 -23 -29 -34 -41 -24 -30 -35 -42 -18 -19 -21 -25 -27 -32 0
-24 -30 -35 -42 -45 -18 -19 -21 -23 -25 -27 -29 -32 -34 -41 0
-45 -42 -35 -30 -24 -41 -34 -29 -23 -32 -27 -21 -25 -19 -18 0
-18 -19 -22 -23 -24 -25 -28 -29 -30 -33 -34 -35 -43 -44 -45 0
-24 -23 -22 -19 -18 -45 -44 -35 -30 -43 -34 -29 -33 -28 -25 0
-18 -30 -29 -28 -25 -24 -23 -22 -19 -45 -44 -35 -43 -34 -33 0
-25 -28 -29 -30 -18 -33 -34 -35 -19 -43 -44 -22 -45 -23 -24 0
-25 -19 -35 -34 -33 -18 -30 -29 -28 -24 -23 -22 -45 -44 -43 0
-33 -34 -35 -19 -25 -43 -44 -22 -28 -45 -23 -29 -24 -30 -18 0
-33 -28 -22 -44 -43 -25 -19 -35 -34 -18 -30 -29 -24 -23 -45 0
-43 -44 -22 -28 -33 -45 -23 -29 -34 -24 -30 -35 -18 -19 -25 0
-43 -34 -29 -23 -45 -33 -28 -22 -44 -25 -19 -35 -18 -30 -24 0
-45 -23 -29 -34 -43 -24 -30 -35 -44 -18 -19 -22 -25 -28 -33 0
-24 -30 -35 -44 -45 -18 -19 -22 -23 -25 -28 -29 -33 -34 -43 0
-45 -44 -35 -30 -24 -43 -34 -29 -23 -33 -28 -22 -25 -19 -18 0
-18 -20 -21 -22 -23 -26 -27 -28 -29 -36 -37 -38 -40 -41 -43 0
-23 -22 -21 -20 -18 -43 -41 -38 -29 -40 -37 -28 -36 -27 -26 0
-18 -29 -28 -27 -26 -23 -22 -21 -20 -43 -41 -38 -40 -37 -36 0
-26 -27 -28 -29 -18 -36 -37 -38 -20 -40 -41 -21 -43 -22 -23 0
-26 -20 -38 -37 -36 -18 -29 -28 -27 -23 -22 -21 -43 -41 -40 0
-36 -37 -38 -20 -26 -40 -41 -21 -27 -43 -22 -28 -23 -29 -18 0
-36 -27 -21 -41 -40 -26 -20 -38 -37 -18 -29 -28 -23 -22 -43 0
-40 -41 -21 -27 -36 -43 -22 -28 -37 -23 -29 -38 -18 -20 -26 0
-40 -37 -28 -22 -43 -36 -27 -21 -41 -26 -20 -38 -18 -29 -23 0
-43 -22 -28 -37 -40 -23 -29 -38 -41 -18 -20 -21 -26 -27 -36 0
-23 -29 -38 -41 -43 -18 -20 -21 -22 -26 -27 -28 -36 -37 -40 0
-43 -41 -38 -29 -23 -40 -37 -28 -22 -36 -27 -21 -26 -20 -18 0
-18 -20 -21 -22 -24 -26 -27 -28 -30 -36 -37 -39 -40 -42 -44 0
-24 -22 -21 -20 -18 -44 -42 -39 -30 -40 -37 -28 -36 -27 -26 0
-18 -30 -28 -27 -26 -24 -22 -21 -20 -44 -42 -39 -40 -37 -36 0
-26 -27 -28 -30 -18 -36 -37 -39 -20 -40 -42 -21 -44 -22 -24 0
-26 -20 -39 -37 -36 -18 -30 -28 -27 -24 -22 -21 -44 -42 -40 0
-36 -37 -39 -20 -26 -40 -42 -21 -27 -44 -22 -28 -24 -30 -18 0
-36 -27 -21 -42 -40 -26 -20 -39 -37 -18 -30 -28 -24 -22 -44 0
-40 -42 -21 -27 -36 -44 -22 -28 -37 -24 -30 -39 -18 -20 -26 0
-40 -37 -28 -22 -44 -36 -27 -21 -42 -26 -20 -39 -18 -30 -24 0
-44 -22 -28 -37 -40 -24 -30 -39 -42 -18 -20 -21 -26 -27 -36 0
-24 -30 -39 -42 -44 -18 -20 -21 -22 -26 -27 -28 -36 -37 -40 0
-44 -42 -39 -30 -24 -40 -37 -28 -22 -36 -27 -21 -26 -20 -18 0
-18 -20 -21 -23 -24 -26 -27 -29 -30 -36 -38 -39 -41 -42 -45 0
-24 -23 -21 -20 -18 -45 -42 -39 -30 -41 -38 -29 -36 -27 -26 0
-18 -30 -29 -27 -26 -24 -23 -21 -20 -45 -42 -39 -41 -38 -36 0
-26 -27 -29 -30 -18 -36 -38 -39 -20 -41 -42 -21 -45 -23 -24 0
-26 -20 -39 -38 -36 -18 -30 -29 -27 -24 -23 -21 -45 -42 -41 0
-36 -38 -39 -20 -26 -41 -42 -21 -27 -45 -23 -29 -24 -30 -18 0
-36 -27 -21 -42 -41 -26 -20 -39 -38 -18 -30 -29 -24 -23 -45 0
-41 -42 -21 -27 -36 -45 -23 -29 -38 -24 -30 -39 -18 -20 -26 0
-41 -38 -29 -23 -45 -36 -27 -21 -42 -26 -20 -39 -18 -30 -24 0
-45 -23 -29 -38 -41 -24 -30 -39 -42 -18 -20 -21 -26 -27 -36 0
-24 -30 -39 -42 -45 -18 -20 -21 -23 -26 -27 -29 -36 -38 -41 0
-45 -42 -39 -30 -24 -41 -38 -29 -23 -36 -27 -21 -26 -20 -18 0
-18 -20 -22 -23 -24 -26 -28 -29 -30 -37 -38 -39 -43 -44 -45 0
-24 -23 -22 -20 -18 -45 -44 -39 -30 -43 -38 -29 -37 -28 -26 0
-18 -30 -29 -28 -26 -24 -23 -22 -20 -45 -44 -39 -43 -38 -37 0
-26 -28 -29 -30 -18 -37 -38 -39 -20 -43 -44 -22 -45 -23 -24 0
-26 -20 -39 -38 -37 -18 -30 -29 -28 -24 -23 -22 -45 -44 -43 0
-37 -38 -39 -20 -26 -43 -44 -22 -28 -45 -23 -29 -24 -30 -18 0
-37 -28 -22 -44 -43 -26 -20 -39 -38 -18 -30 -29 -24 -23 -45 0
-43 -44 -22 -28 -37 -45 -23 -29 -38 -24 -30 -39 -18 -20 -26 0
-43 -38 -29 -23 -45 -37 -28 -22 -44 -26 -20 -39 -18 -30 -24 0
-45 -23 -29 -38 -43 -24 -30 -39 -44 -18 -20 -22 -26 -28 -37 0
-24 -30 -39 -44 -45 -18 -20 -22 -23 -26 -28 -29 -37 -38 -43 0
-45 -44 -39 -30 -24 -43 -38 -29 -23 -37 -28 -22 -26 -20 -18 0
-18 -21 -22 -23 -24 -27 -28 -29 -30 -40 -41 -42 -43 -44 -45 0
-24 -23 -22 -21 -18 -45 -44 -42 -30 -43 -41 -29 -40 -28 -27 0
-18 -30 -29 -28 -27 -24 -23 -22 -21 -45 -44 -42 -43 -41 -40 0
-27 -28 -29 -30 -18 -40 -41 -42 -21 -43 -44 -22 -45 -23 -24 0
-27 -21 -42 -41 -40 -18 -30 -29 -28 -24 -23 -22 -45 -44 -43 0
-40 -41 -42 -21 -27 -43 -44 -22 -28 -45 -23 -29 -24 -30 -18 0
-40 -28 -22 -44 -43 -27 -21 -42 -41 -18 -30 -29 -24 -23 -45 0
-43 -44 -22 -28 -40 -45 -23 -29 -41 -24 -30 -42 -18 -21 -27 0
-43 -41 -29 -23 -45 -40 -28 -22 -44 -27 -21 -42 -18 -30 -24 0
-45 -23 -29 -41 -43 -24 -30 -42 -44 -18 -21 -22 -27 -28 -40 0
-24 -30 -42 -44 -45 -18 -21 -22 -23 -27 -28 -29 -40 -41 -43 0
-45 -44 -42 -30 -24 -43 -41 -29 -23 -40 -28 -22 -27 -21 -18 0
-19 -20 -21 -22 -23 -31 -32 -33 -34 -36 -37 -38 -40 -41 -43 0
-23 -22 -21 -20 -19 -43 -41 -38 -34 -40 -37 -33 -36 -32 -31 0
-19 -34 -33 -32 -31 -23 -22 -21 -20 -43 -41 -38 -40 -37 -36 0
-31 -32 -33 -34 -19 -36 -37 -38 -20 -40 -41 -21 -43 -22 -23 0
-31 -20 -38 -37 -36 -19 -34 -33 -32 -23 -22 -21 -43 -41 -40 0
-36 -37 -38 -20 -31 -40 -41 -21 -32 -43 -22 -33 -23 -34 -19 0
-36 -32 -21 -41 -40 -31 -20 -38 -37 -19 -34 -33 -23 -22 -43 0
-40 -41 -21 -32 -36 -43 -22 -33 -37 -23 -34 -38 -19 -20 -31 0
-40 -37 -33 -22 -43 -36 -32 -21 -41 -31 -20 -38 -19 -34 -23 0
-43 -22 -33 -37 -40 -23 -34 -38 -41 -19 -20 -21 -31 -32 -36 0
-23 -34 -38 -41 -43 -19 -20 -21 -22 -31 -32 -33 -36 -37 -40 0
-43 -41 -38 -34 -23 -40 -37 -33 -22 -36 -32 -21 -31 -20 -19 0
-19 -20 -21 -22 -24 -31 -32 -33 -35 -36 -37 -39 -40 -42 -44 0
-24 -22 -21 -20 -19 -44 -42 -39 -35 -40 -37 -33 -36 -32 -31 0
-19 -35 -33 -32 -31 -24 -22 -21 -20 -44 -42 -39 -40 -37 -36 0
-31 -32 -33 -35 -19 -36 -37 -39 -20 -40 -42 -21 -44 -22 -24 0
-31 -20 -39 -37 -36 -19 -35 -33 -32 -24 -22 -21 -44 -42 -40 0
-36 -37 -39 -20 -31 -40 -42 -21 -32 -44 -22 -33 -24 -35 -19 0
-36 -32 -21 -42 -40 -31 -20 -39 -37 -19 -35 -33 -24 -22 -44 0
-40 -42 -21 -32 -36 -44 -22 -33 -37 -24 -35 -39 -19 -20 -31 0
-40 -37 -33 -22 -44 -36 -32 -21 -42 -31 -20 -39 -19 -35 -24 0
-44 -22 -33 -37 -40 -24 -35 -39 -42 -19 -20 -21 -31 -32 -36 0
-24 -35 -39 -42 -44 -19 -20 -21 -22 -31 -32 -33 -36 -37 -40 0
-44 -42 -39 -35 -24 -40 -37 -33 -22 -36 -32 -21 -31 -20 -19 0
-19 -20 -21 -23 -24 -31 -32 -34 -35 -36 -38 -39 -41 -42 -45 0
-24 -23 -21 -20 -19 -45 -42 -39 -35 -41 -38 -34 -36 -32 -31 0
-19 -35 -34 -32 -31 -24 -23 -21 -20 -45 -42 -39 -41 -38 -36 0
-31 -32 -34 -35 -19 -36 -38 -39 -20 -41 -42 -21 -45 -23 -24 0
-31 -20 -39 -38 -36 -19 -35 -34 -32 -24 -23 -21 -45 -42 -41 0
-36 -38 -39 -20 -31 -41 -42 -21 -32 -45 -23 -34 -24 -35 -19 0
-36 -32 -21 -42 -41 -31 -20 -39 -38 -19 -35 -34 -24 -23 -45 0
-41 -42 -21 -32 -36 -45 -23 -34 -38 -24 -35 -39 -19 -20 -31 0
-41 -38 -34 -23 -45 -36 -32 -21 -42 -31 -20 -39 -19 -35 -24 0
-45 -23 -34 -38 -41 -24 -35 -39 -42 -19 -20 -21 -31 -32 -36 0
-24 -35 -39 -42 -45 -19 -20 -21 -23 -31 -32 -34 -36 -38 -41 0
-45 -42 -39 -35 -24 -41 -38 -34 -23 -36 -32 -21 -31 -20 -19 0
-19 -20 -22 -23 -24 -31 -33 -34 -35 -37 -38 -39 -43 -44 -45 0
-24 -23 -22 -20 -19 -45 -44 -39 -35 -43 -38 -34 -37 -33 -31 0
-19 -35 -34 -33 -31 -24 -23 -22 -20 -45 -44 -39 -43 -38 -37 0
-31 -33 -34 -35 -19 -37 -38 -39 -20 -43 -44 -22 -45 -23 -24 0
-31 -20 -39 -38 -37 -19 -35 -34 -33 -24 -23 -22 -45 -44 -43 0
-37 -38 -39 -20 -31 -43 -44 -22 -33 -45 -23 -34 -24 -35 -19 0
-37 -33 -22 -44 -43 -31 -20 -39 -38 -19 -35 -34 -24 -23 -45 0
-43 -44 -22 -33 -37 -45 -23 -34 -38 -24 -35 -39 -19 -20 -31 0
-43 -38 -34 -23 -45 -37 -33 -22 -44 -31 -20 -39 -19 -35 -24 0
-45 -23 -34 -38 -43 -24 -35 -39 -44 -19 -20 -22 -31 -33 -37 0
-24 -35 -39 -44 -45 -19 -20 -22 -23 -31 -33 -34 -37 -38 -43 0
-45 -44 -39 -35 -24 -43 -38 -34 -23 -37 -33 -22 -31 -20 -19 0
-19 -21 -22 -23 -24 -32 -33 -34 -35 -40 -41 -42 -43 -44 -45 0
-24 -23 -22 -21 -19 -45 -44 -42 -35 -43 -41 -34 -40 -33 -32 0
-19 -35 -34 -33 -32 -24 -23 -22 -21 -45 -44 -42 -43 -41 -40 0
-32 -33 -34 -35 -19 -40 -41 -42 -21 -43 -44 -22 -45 -23 -24 0
-32 -21 -42 -41 -40 -19 -35 -34 -33 -24 -23 -22 -45 -44 -43 0
-40 -41 -42 -21 -32 -43 -44 -22 -33 -45 -23 -34 -24 -35 -19 0
-40 -33 -22 -44 -43 -32 -21 -42 -41 -19 -35 -34 -24 -23 -45 0
-43 -44 -22 -33 -40 -45 -23 -34 -41 -24 -35 -42 -19 -21 -32 0
-43 -41 -34 -23 -45 -40 -33 -22 -44 -32 -21 -42 -19 -35 -24 0
-45 -23 -34 -41 -43 -24 -35 -42 -44 -19 -21 -22 -32 -33 -40 0
-24 -35 -42 -44 -45 -19 -21 -22 -23 -32 -33 -34 -40 -41 -43 0
-45 -44 -42 -35 -24 -43 -41 -34 -23 -40 -33 -22 -32 -21 -19 0
-20 -21 -22 -23 -24 -36 -37 -38 -39 -40 -41 -42 -43 -44 -45 0
-24 -23 -22 -21 -20 -45 -44 -42 -39 -43 -41 -38 -40 -37 -36 0
-20 -39 -38 -37 -36 -24 -23 -22 -21 -45 -44 -42 -43 -41 -40 0
-36 -37 -38 -39 -20 -40 -41 -42 -21 -43 -44 -22 -45 -23 -24 0
-36 -21 -42 -41 -40 -20 -39 -38 -37 -24 -23 -22 -45 -44 -43 0
-40 -41 -42 -21 -36 -43 -44 -22 -37 -45 -23 -38 -24 -39 -20 0
-40 -37 -22 -44 -43 -36 -21 -42 -41 -20 -39 -38 -24 -23 -45 0
-43 -44 -22 -37 -40 -45 -23 -38 -41 -24 -39 -42 -20 -21 -36 0
-43 -41 -38 -23 -45 -40 -37 -22 -44 -36 -21 -42 -20 -39 -24 0
-45 -23 -38 -41 -43 -24 -39 -42 -44 -20 -21 -22 -36 -37 -40 0
-24 -39 -42 -44 -45 -20 -21 -22 -23 -36 -37 -38 -40 -41 -43 0
-45 -44 -42 -39 -24 -43 -41 -38 -23 -40 -37 -22 -36 -21 -20 0
-25 -26 -27 -28 -29 -31 -32 -33 -34 -36 -37 -38 -40 -41 -43 0
-29 -28 -27 -26 -25 -43 -41 -38 -34 -40 -37 -33 -36 -32 -31 0
-25 -34 -33 -32 -31 -29 -28 -27 -26 -43 -41 -38 -40 -37 -36 0
-31 -32 -33 -34 -25 -36 -37 -38 -26 -40 -41 -27 -43 -28 -29 0
-31 -26 -38 -37 -36 -25 -34 -33 -32 -29 -28 -27 -43 -41 -40 0
-36 -37 -38 -26 -31 -40 -41 -27 -32 -43 -28 -33 -29 -34 -25 0
-36 -32 -27 -41 -40 -31 -26 -38 -37 -25 -34 -33 -29 -28 -43 0
-40 -41 -27 -32 -36 -43 -28 -33 -37 -29 -34 -38 -25 -26 -31 0
-40 -37 -33 -28 -43 -36 -32 -27 -41 -31 -26 -38 -25 -34 -29 0
-43 -28 -33 -37 -40 -29 -34 -38 -41 -25 -26 -27 -31 -32 -36 0
-29 -34 -38 -41 -43 -25 -26 -27 -28 -31 -32 -33 -36 -37 -40 0
-43 -41 -38 -34 -29 -40 -37 -33 -28 -36 -32 -27 -31 -26 -25 0
-25 -26 -27 -28 -30 -31 -32 -33 -35 -36 -37 -39 -40 -42 -44 0
-30 -28 -27 -26 -25 -44 -42 -39 -35 -40 -37 -33 -36 -32 -31 0
-25 -35 -33 -32 -31 -30 -28 -27 -26 -44 -42 -39 -40 -37 -36 0
-31 -32 -33 -35 -25 -36 -37 -39 -26 -40 -42 -27 -44 -28 -30 0
-31 -26 -39 -37 -36 -25 -35 -33 -32 -30 -28 -27 -44 -42 -40 0
-36 -37 -39 -26 -31 -40 -42 -27 -32 -44 -28 -33 -30 -35 -25 0
-36 -32 -27 -42 -40 -31 -26 -39 -37 -25 -35 -33 -30 -28 -44 0
-40 -42 -27 -32 -36 -44 -28 -33 -37 -30 -35 -39 -25 -26 -31 0
-40 -37 -33 -28 -44 -36 -32 -27 -42 -31 -26 -39 -25 -35 -30 0
-44 -28 -33 -37 -40 -30 -35 -39 -42 -25 -26 -27 -31 -32 -36 0
-30 -35 -39 -42 -44 -25 -26 -27 -28 -31 -32 -33 -36 -37 -40 0
-44 -42 -39 -35 -30 -40 -37 -33 -28 -36 -32 -27 -31 -26 -25 0
-25 -26 -27 -29 -30 -31 -32 -34 -35 -36 -38 -39 -41 -42 -45 0
-30 -29 -27 -26 -25 -45 -42 -39 -35 -41 -38 -34 -36 -32 -31 0
-25 -35 -34 -32 -31 -30 -29 -27 -26 -45 -42 -39 -41 -38 -36 0
-31 -32 -34 -35 -25 -36 -38 -39 -26 -41 -42 -27 -45 -29 -30 0
-31 -26 -39 -38 -36 -25 -35 -34 -32 -30 -29 -27 -45 -42 -41 0
-36 -38 -39 -26 -31 -41 -42 -27 -32 -45 -29 -34 -30 -35 -25 0
-36 -32 -27 -42 -41 -31 -26 -39 -38 -25 -35 -34 -30 -29 -45 0
-41 -42 -27 -32 -36 -45 -29 -34 -38 -30 -35 -39 -25 -26 -31 0
-41 -38 -34 -29 -45 -36 -32 -27 -42 -31 -26 -39 -25 -35 -30 0
-45 -29 -34 -38 -41 -30 -35 -39 -42 -25 -26 -27 -31 -32 -36 0
-30 -35 -39 -42 -45 -25 -26 -27 -29 -31 -32 -34 -36 -38 -41 0
-45 -42 -39 -35 -30 -41 -38 -34 -29 -36 -32 -27 -31 -26 -25 0
-25 -26 -28 -29 -30 -31 -33 -34 -35 -37 -38 -39 -43 -44 -45 0
-30 -29 -28 -26 -25 -45 -44 -39 -35 -43 -38 -34 -37 -33 -31 0
-25 -35 -34 -33 -31 -30 -29 -28 -26 -45 -44 -39 -43 -38 -37 0
-31 -33 -34 -35 -25 -37 -38 -39 -26 -43 -44 -28 -45 -29 -30 0
-31 -26 -39 -38 -37 -25 -35 -34 -33 -30 -29 -28 -45 -44 -43 0
-37 -38 -39 -26 -31 -43 -44 -28 -33 -45 -29 -34 -30 -35 -25 0
-37 -33 -28 -44 -43 -31 -26 -39 -38 -25 -35 -34 -30 -29 -45 0
-43 -44 -28 -33 -37 -45 -29 -34 -38 -30 -35 -39 -25 -26 -31 0
-43 -38 -34 -29 -45 -37 -33 -28 -44 -31 -26 -39 -25 -35 -30 0
-45 -29 -34 -38 -43 -30 -35 -39 -44 -25 -26 -28 -31 -33 -37 0
-30 -35 -39 -44 -45 -25 -26 -28 -29 -31 -33 -34 -37 -38 -43 0
-45 -44 -39 -35 -30 -43 -38 -34 -29 -37 -33 -28 -31 -26 -25 0
-25 -27 -28 -29 -30 -32 -33 -34 -35 -40 -41 -42 -43 -44 -45 0
-30 -29 -28 -27 -25 -45 -44 -42 -35 -43 -41 -34 -40 -33 -32 0
-25 -35 -34 -33 -32 -30 -29 -28 -27 -45 -44 -42 -43 -41 -40 0
-32 -33 -34 -35 -25 -40 -41 -42 -27 -43 -44 -28 -45 -29 -30 0
-32 -27 -42 -41 -40 -25 -35 -34 -33 -30 -29 -28 -45 -44 -43 0
-40 -41 -42 -27 -32 -43 -44 -28 -33 -45 -29 -34 -30 -35 -25 0
-40 -33 -28 -44 -43 -32 -27 -42 -41 -25 -35 -34 -30 -29 -45 0
-43 -44 -28 -33 -40 -45 -29 -34 -41 -30 -35 -42 -25 -27 -32 0
-43 -41 -34 -29 -45 -40 -33 -28 -44 -32 -27 -42 -25 -35 -30 0
-45 -29 -34 -41 -43 -30 -35 -42 -44 -25 -27 -28 -32 -33 -40 0
-30 -35 -42 -44 -45 -25 -27 -28 -29 -32 -33 -34 -40 -41 -43 0
-45 -44 -42 -35 -30 -43 -41 -34 -29 -40 -33 -28 -32 -27 -25 0
-26 -27 -28 -29 -30 -36 -37 -38 -39 -40 -41 -42 -43 -44 -45 0
-30 -29 -28 -27 -26 -45 -44 -42 -39 -43 -41 -38 -40 -37 -36 0
-26 -39 -38 -37 -36 -30 -29 -28 -27 -45 -44 -42 -43 -41 -40 0
-36 -37 -38 -39 -26 -40 -41 -42 -27 -43 -44 -28 -45 -29 -30 0
-36 -27 -42 -41 -40 -26 -39 -38 -37 -30 -29 -28 -45 -44 -43 0
-40 -41 -42 -27 -36 -43 -44 -28 -37 -45 -29 -38 -30 -39 -26 0
-40 -37 -28 -44 -43 -36 -27 -42 -41 -26 -39 -38 -30 -29 -45 0
-43 -44 -28 -37 -40 -45 -29 -38 -41 -30 -39 -42 -26 -27 -36 0
-43 -41 -38 -29 -45 -40 -37 -28 -44 -36 -27 -42 -26 -39 -30 0
-45 -29 -38 -41 -43 -30 -39 -42 -44 -26 -27 -28 -36 -37 -40 0
-30 -39 -42 -44 -45 -26 -27 -28 -29 -36 -37 -38 -40 -41 -43 0
-45 -44 -42 -39 -30 -43 -41 -38 -29 -40 -37 -28 -36 -27 -26 0
-31 -32 -33 -34 -35 -36 -37 -38 -39 -40 -41 -42 -43 -44 -45 0
-35 -34 -33 -32 -31 -45 -44 -42 -39 -43 -41 -38 -40 -37 -36 0
-31 -39 -38 -37 -36 -35 -34 -33 -32 -45 -44 -42 -43 -41 -40 0
-36 -37 -38 -39 -31 -40 -41 -42 -32 -43 -44 -33 -45 -34 -35 0
-36 -32 -42 -41 -40 -31 -39 -38 -37 -35 -34 -33 -45 -44 -43 0
-40 -41 -42 -32 -36 -43 -44 -33 -37 -45 -34 -38 -35 -39 -31 0
-40 -37 -33 -44 -43 -36 -32 -42 -41 -31 -39 -38 -35 -34 -45 0
-43 -44 -33 -37 -40 -45 -34 -38 -41 -35 -39 -42 -31 -32 -36 0
-43 -41 -38 -34 -45 -40 -37 -33 -44 -36 -32 -42 -31 -39 -35 0
-45 -34 -38 -41 -43 -35 -39 -42 -44 -31 -32 -33 -36 -37 -40 0
-35 -39 -42 -44 -45 -31 -32 -33 -34 -36 -37 -38 -40 -41 -43 0
-45 -44 -42 -39 -35 -43 -41 -38 -34 -40 -37 -33 -36 -32 -31 0
