c Theorem B raw encoding: (P3alt,Dih(3)) vs (K_6,Dih(6)), n=11; UNSAT expected (proof leg); regenerated 2026-08-13
p cnf 55 6534
2 11 0
1 11 0
11 2 0
1 2 0
11 1 0
2 1 0
3 12 0
1 12 0
12 3 0
1 3 0
12 1 0
3 1 0
4 13 0
1 13 0
13 4 0
1 4 0
13 1 0
4 1 0
5 14 0
1 14 0
14 5 0
1 5 0
14 1 0
5 1 0
6 15 0
1 15 0
15 6 0
1 6 0
15 1 0
6 1 0
7 16 0
1 16 0
16 7 0
1 7 0
16 1 0
7 1 0
8 17 0
1 17 0
17 8 0
1 8 0
17 1 0
8 1 0
9 18 0
1 18 0
18 9 0
1 9 0
18 1 0
9 1 0
10 19 0
1 19 0
19 10 0
1 10 0
19 1 0
10 1 0
3 20 0
2 20 0
20 3 0
2 3 0
20 2 0
3 2 0
4 21 0
2 21 0
21 4 0
2 4 0
21 2 0
4 2 0
5 22 0
2 22 0
22 5 0
2 5 0
22 2 0
5 2 0
6 23 0
2 23 0
23 6 0
2 6 0
23 2 0
6 2 0
7 24 0
2 24 0
24 7 0
2 7 0
24 2 0
7 2 0
8 25 0
2 25 0
25 8 0
2 8 0
25 2 0
8 2 0
9 26 0
2 26 0
26 9 0
2 9 0
26 2 0
9 2 0
10 27 0
2 27 0
27 10 0
2 10 0
27 2 0
10 2 0
4 28 0
3 28 0
28 4 0
3 4 0
28 3 0
4 3 0
5 29 0
3 29 0
29 5 0
3 5 0
29 3 0
5 3 0
6 30 0
3 30 0
30 6 0
3 6 0
30 3 0
6 3 0
7 31 0
3 31 0
31 7 0
3 7 0
31 3 0
7 3 0
8 32 0
3 32 0
32 8 0
3 8 0
32 3 0
8 3 0
9 33 0
3 33 0
33 9 0
3 9 0
33 3 0
9 3 0
10 34 0
3 34 0
34 10 0
3 10 0
34 3 0
10 3 0
5 35 0
4 35 0
35 5 0
4 5 0
35 4 0
5 4 0
6 36 0
4 36 0
36 6 0
4 6 0
36 4 0
6 4 0
7 37 0
4 37 0
37 7 0
4 7 0
37 4 0
7 4 0
8 38 0
4 38 0
38 8 0
4 8 0
38 4 0
8 4 0
9 39 0
4 39 0
39 9 0
4 9 0
39 4 0
9 4 0
10 40 0
4 40 0
40 10 0
4 10 0
40 4 0
10 4 0
6 41 0
5 41 0
41 6 0
5 6 0
41 5 0
6 5 0
7 42 0
5 42 0
42 7 0
5 7 0
42 5 0
7 5 0
8 43 0
5 43 0
43 8 0
5 8 0
43 5 0
8 5 0
9 44 0
5 44 0
44 9 0
5 9 0
44 5 0
9 5 0
10 45 0
5 45 0
45 10 0
5 10 0
45 5 0
10 5 0
7 46 0
6 46 0
46 7 0
6 7 0
46 6 0
7 6 0
8 47 0
6 47 0
47 8 0
6 8 0
47 6 0
8 6 0
9 48 0
6 48 0
48 9 0
6 9 0
48 6 0
9 6 0
10 49 0
6 49 0
49 10 0
6 10 0
49 6 0
10 6 0
8 50 0
7 50 0
50 8 0
7 8 0
50 7 0
8 7 0
9 51 0
7 51 0
51 9 0
7 9 0
51 7 0
9 7 0
10 52 0
7 52 0
52 10 0
7 10 0
52 7 0
10 7 0
9 53 0
8 53 0
53 9 0
8 9 0
53 8 0
9 8 0
10 54 0
8 54 0
54 10 0
8 10 0
54 8 0
10 8 0
10 55 0
9 55 0
55 10 0
9 10 0
55 9 0
10 9 0
12 20 0
11 20 0
20 12 0
11 12 0
20 11 0
12 11 0
13 21 0
11 21 0
21 13 0
11 13 0
21 11 0
13 11 0
14 22 0
11 22 0
22 14 0
11 14 0
22 11 0
14 11 0
15 23 0
11 23 0
23 15 0
11 15 0
23 11 0
15 11 0
16 24 0
11 24 0
24 16 0
11 16 0
24 11 0
16 11 0
17 25 0
11 25 0
25 17 0
11 17 0
25 11 0
17 11 0
18 26 0
11 26 0
26 18 0
11 18 0
26 11 0
18 11 0
19 27 0
11 27 0
27 19 0
11 19 0
27 11 0
19 11 0
13 28 0
12 28 0
28 13 0
12 13 0
28 12 0
13 12 0
14 29 0
12 29 0
29 14 0
12 14 0
29 12 0
14 12 0
15 30 0
12 30 0
30 15 0
12 15 0
30 12 0
15 12 0
16 31 0
12 31 0
31 16 0
12 16 0
31 12 0
16 12 0
17 32 0
12 32 0
32 17 0
12 17 0
32 12 0
17 12 0
18 33 0
12 33 0
33 18 0
12 18 0
33 12 0
18 12 0
19 34 0
12 34 0
34 19 0
12 19 0
34 12 0
19 12 0
14 35 0
13 35 0
35 14 0
13 14 0
35 13 0
14 13 0
15 36 0
13 36 0
36 15 0
13 15 0
36 13 0
15 13 0
16 37 0
13 37 0
37 16 0
13 16 0
37 13 0
16 13 0
17 38 0
13 38 0
38 17 0
13 17 0
38 13 0
17 13 0
18 39 0
13 39 0
39 18 0
13 18 0
39 13 0
18 13 0
19 40 0
13 40 0
40 19 0
13 19 0
40 13 0
19 13 0
15 41 0
14 41 0
41 15 0
14 15 0
41 14 0
15 14 0
16 42 0
14 42 0
42 16 0
14 16 0
42 14 0
16 14 0
17 43 0
14 43 0
43 17 0
14 17 0
43 14 0
17 14 0
18 44 0
14 44 0
44 18 0
14 18 0
44 14 0
18 14 0
19 45 0
14 45 0
45 19 0
14 19 0
45 14 0
19 14 0
16 46 0
15 46 0
46 16 0
15 16 0
46 15 0
16 15 0
17 47 0
15 47 0
47 17 0
15 17 0
47 15 0
17 15 0
18 48 0
15 48 0
48 18 0
15 18 0
48 15 0
18 15 0
19 49 0
15 49 0
49 19 0
15 19 0
49 15 0
19 15 0
17 50 0
16 50 0
50 17 0
16 17 0
50 16 0
17 16 0
18 51 0
16 51 0
51 18 0
16 18 0
51 16 0
18 16 0
19 52 0
16 52 0
52 19 0
16 19 0
52 16 0
19 16 0
18 53 0
17 53 0
53 18 0
17 18 0
53 17 0
18 17 0
19 54 0
17 54 0
54 19 0
17 19 0
54 17 0
19 17 0
19 55 0
18 55 0
55 19 0
18 19 0
55 18 0
19 18 0
21 28 0
20 28 0
28 21 0
20 21 0
28 20 0
21 20 0
22 29 0
20 29 0
29 22 0
20 22 0
29 20 0
22 20 0
23 30 0
20 30 0
30 23 0
20 23 0
30 20 0
23 20 0
24 31 0
20 31 0
31 24 0
20 24 0
31 20 0
24 20 0
25 32 0
20 32 0
32 25 0
20 25 0
32 20 0
25 20 0
26 33 0
20 33 0
33 26 0
20 26 0
33 20 0
26 20 0
27 34 0
20 34 0
34 27 0
20 27 0
34 20 0
27 20 0
22 35 0
21 35 0
35 22 0
21 22 0
35 21 0
22 21 0
23 36 0
21 36 0
36 23 0
21 23 0
36 21 0
23 21 0
24 37 0
21 37 0
37 24 0
21 24 0
37 21 0
24 21 0
25 38 0
21 38 0
38 25 0
21 25 0
38 21 0
25 21 0
26 39 0
21 39 0
39 26 0
21 26 0
39 21 0
26 21 0
27 40 0
21 40 0
40 27 0
21 27 0
40 21 0
27 21 0
23 41 0
22 41 0
41 23 0
22 23 0
41 22 0
23 22 0
24 42 0
22 42 0
42 24 0
22 24 0
42 22 0
24 22 0
25 43 0
22 43 0
43 25 0
22 25 0
43 22 0
25 22 0
26 44 0
22 44 0
44 26 0
22 26 0
44 22 0
26 22 0
27 45 0
22 45 0
45 27 0
22 27 0
45 22 0
27 22 0
24 46 0
23 46 0
46 24 0
23 24 0
46 23 0
24 23 0
25 47 0
23 47 0
47 25 0
23 25 0
47 23 0
25 23 0
26 48 0
23 48 0
48 26 0
23 26 0
48 23 0
26 23 0
27 49 0
23 49 0
49 27 0
23 27 0
49 23 0
27 23 0
25 50 0
24 50 0
50 25 0
24 25 0
50 24 0
25 24 0
26 51 0
24 51 0
51 26 0
24 26 0
51 24 0
26 24 0
27 52 0
24 52 0
52 27 0
24 27 0
52 24 0
27 24 0
26 53 0
25 53 0
53 26 0
25 26 0
53 25 0
26 25 0
27 54 0
25 54 0
54 27 0
25 27 0
54 25 0
27 25 0
27 55 0
26 55 0
55 27 0
26 27 0
55 26 0
27 26 0
29 35 0
28 35 0
35 29 0
28 29 0
35 28 0
29 28 0
30 36 0
28 36 0
36 30 0
28 30 0
36 28 0
30 28 0
31 37 0
28 37 0
37 31 0
28 31 0
37 28 0
31 28 0
32 38 0
28 38 0
38 32 0
28 32 0
38 28 0
32 28 0
33 39 0
28 39 0
39 33 0
28 33 0
39 28 0
33 28 0
34 40 0
28 40 0
40 34 0
28 34 0
40 28 0
34 28 0
30 41 0
29 41 0
41 30 0
29 30 0
41 29 0
30 29 0
31 42 0
29 42 0
42 31 0
29 31 0
42 29 0
31 29 0
32 43 0
29 43 0
43 32 0
29 32 0
43 29 0
32 29 0
33 44 0
29 44 0
44 33 0
29 33 0
44 29 0
33 29 0
34 45 0
29 45 0
45 34 0
29 34 0
45 29 0
34 29 0
31 46 0
30 46 0
46 31 0
30 31 0
46 30 0
31 30 0
32 47 0
30 47 0
47 32 0
30 32 0
47 30 0
32 30 0
33 48 0
30 48 0
48 33 0
30 33 0
48 30 0
33 30 0
34 49 0
30 49 0
49 34 0
30 34 0
49 30 0
34 30 0
32 50 0
31 50 0
50 32 0
31 32 0
50 31 0
32 31 0
33 51 0
31 51 0
51 33 0
31 33 0
51 31 0
33 31 0
34 52 0
31 52 0
52 34 0
31 34 0
52 31 0
34 31 0
33 53 0
32 53 0
53 33 0
32 33 0
53 32 0
33 32 0
34 54 0
32 54 0
54 34 0
32 34 0
54 32 0
34 32 0
34 55 0
33 55 0
55 34 0
33 34 0
55 33 0
34 33 0
36 41 0
35 41 0
41 36 0
35 36 0
41 35 0
36 35 0
37 42 0
35 42 0
42 37 0
35 37 0
42 35 0
37 35 0
38 43 0
35 43 0
43 38 0
35 38 0
43 35 0
38 35 0
39 44 0
35 44 0
44 39 0
35 39 0
44 35 0
39 35 0
40 45 0
35 45 0
45 40 0
35 40 0
45 35 0
40 35 0
37 46 0
36 46 0
46 37 0
36 37 0
46 36 0
37 36 0
38 47 0
36 47 0
47 38 0
36 38 0
47 36 0
38 36 0
39 48 0
36 48 0
48 39 0
36 39 0
48 36 0
39 36 0
40 49 0
36 49 0
49 40 0
36 40 0
49 36 0
40 36 0
38 50 0
37 50 0
50 38 0
37 38 0
50 37 0
38 37 0
39 51 0
37 51 0
51 39 0
37 39 0
51 37 0
39 37 0
40 52 0
37 52 0
52 40 0
37 40 0
52 37 0
40 37 0
39 53 0
38 53 0
53 39 0
38 39 0
53 38 0
39 38 0
40 54 0
38 54 0
54 40 0
38 40 0
54 38 0
40 38 0
40 55 0
39 55 0
55 40 0
39 40 0
55 39 0
40 39 0
42 46 0
41 46 0
46 42 0
41 42 0
46 41 0
42 41 0
43 47 0
41 47 0
47 43 0
41 43 0
47 41 0
43 41 0
44 48 0
41 48 0
48 44 0
41 44 0
48 41 0
44 41 0
45 49 0
41 49 0
49 45 0
41 45 0
49 41 0
45 41 0
43 50 0
42 50 0
50 43 0
42 43 0
50 42 0
43 42 0
44 51 0
42 51 0
51 44 0
42 44 0
51 42 0
44 42 0
45 52 0
42 52 0
52 45 0
42 45 0
52 42 0
45 42 0
44 53 0
43 53 0
53 44 0
43 44 0
53 43 0
44 43 0
45 54 0
43 54 0
54 45 0
43 45 0
54 43 0
45 43 0
45 55 0
44 55 0
55 45 0
44 45 0
55 44 0
45 44 0
47 50 0
46 50 0
50 47 0
46 47 0
50 46 0
47 46 0
48 51 0
46 51 0
51 48 0
46 48 0
51 46 0
48 46 0
49 52 0
46 52 0
52 49 0
46 49 0
52 46 0
49 46 0
48 53 0
47 53 0
53 48 0
47 48 0
53 47 0
48 47 0
49 54 0
47 54 0
54 49 0
47 49 0
54 47 0
49 47 0
49 55 0
48 55 0
55 49 0
48 49 0
55 48 0
49 48 0
51 53 0
50 53 0
53 51 0
50 51 0
53 50 0
51 50 0
52 54 0
50 54 0
54 52 0
50 52 0
54 50 0
52 50 0
52 55 0
51 55 0
55 52 0
51 52 0
55 51 0
52 51 0
54 55 0
53 55 0
55 54 0
53 54 0
55 53 0
54 53 0
-1 -2 -3 -4 -5 -11 -12 -13 -14 -20 -21 -22 -28 -29 -35 0
-5 -4 -3 -2 -1 -35 -29 -22 -14 -28 -21 -13 -20 -12 -11 0
-1 -14 -13 -12 -11 -5 -4 -3 -2 -35 -29 -22 -28 -21 -20 0
-11 -12 -13 -14 -1 -20 -21 -22 -2 -28 -29 -3 -35 -4 -5 0
-11 -2 -22 -21 -20 -1 -14 -13 -12 -5 -4 -3 -35 -29 -28 0
-20 -21 -22 -2 -11 -28 -29 -3 -12 -35 -4 -13 -5 -14 -1 0
-20 -12 -3 -29 -28 -11 -2 -22 -21 -1 -14 -13 -5 -4 -35 0
-28 -29 -3 -12 -20 -35 -4 -13 -21 -5 -14 -22 -1 -2 -11 0
-28 -21 -13 -4 -35 -20 -12 -3 -29 -11 -2 -22 -1 -14 -5 0
-35 -4 -13 -21 -28 -5 -14 -22 -29 -1 -2 -3 -11 -12 -20 0
-5 -14 -22 -29 -35 -1 -2 -3 -4 -11 -12 -13 -20 -21 -28 0
-35 -29 -22 -14 -5 -28 -21 -13 -4 -20 -12 -3 -11 -2 -1 0
-1 -2 -3 -4 -6 -11 -12 -13 -15 -20 -21 -23 -28 -30 -36 0
-6 -4 -3 -2 -1 -36 -30 -23 -15 -28 -21 -13 -20 -12 -11 0
-1 -15 -13 -12 -11 -6 -4 -3 -2 -36 -30 -23 -28 -21 -20 0
-11 -12 -13 -15 -1 -20 -21 -23 -2 -28 -30 -3 -36 -4 -6 0
-11 -2 -23 -21 -20 -1 -15 -13 -12 -6 -4 -3 -36 -30 -28 0
-20 -21 -23 -2 -11 -28 -30 -3 -12 -36 -4 -13 -6 -15 -1 0
-20 -12 -3 -30 -28 -11 -2 -23 -21 -1 -15 -13 -6 -4 -36 0
-28 -30 -3 -12 -20 -36 -4 -13 -21 -6 -15 -23 -1 -2 -11 0
-28 -21 -13 -4 -36 -20 -12 -3 -30 -11 -2 -23 -1 -15 -6 0
-36 -4 -13 -21 -28 -6 -15 -23 -30 -1 -2 -3 -11 -12 -20 0
-6 -15 -23 -30 -36 -1 -2 -3 -4 -11 -12 -13 -20 -21 -28 0
-36 -30 -23 -15 -6 -28 -21 -13 -4 -20 -12 -3 -11 -2 -1 0
-1 -2 -3 -4 -7 -11 -12 -13 -16 -20 -21 -24 -28 -31 -37 0
-7 -4 -3 -2 -1 -37 -31 -24 -16 -28 -21 -13 -20 -12 -11 0
-1 -16 -13 -12 -11 -7 -4 -3 -2 -37 -31 -24 -28 -21 -20 0
-11 -12 -13 -16 -1 -20 -21 -24 -2 -28 -31 -3 -37 -4 -7 0
-11 -2 -24 -21 -20 -1 -16 -13 -12 -7 -4 -3 -37 -31 -28 0
-20 -21 -24 -2 -11 -28 -31 -3 -12 -37 -4 -13 -7 -16 -1 0
-20 -12 -3 -31 -28 -11 -2 -24 -21 -1 -16 -13 -7 -4 -37 0
-28 -31 -3 -12 -20 -37 -4 -13 -21 -7 -16 -24 -1 -2 -11 0
-28 -21 -13 -4 -37 -20 -12 -3 -31 -11 -2 -24 -1 -16 -7 0
-37 -4 -13 -21 -28 -7 -16 -24 -31 -1 -2 -3 -11 -12 -20 0
-7 -16 -24 -31 -37 -1 -2 -3 -4 -11 -12 -13 -20 -21 -28 0
-37 -31 -24 -16 -7 -28 -21 -13 -4 -20 -12 -3 -11 -2 -1 0
-1 -2 -3 -4 -8 -11 -12 -13 -17 -20 -21 -25 -28 -32 -38 0
-8 -4 -3 -2 -1 -38 -32 -25 -17 -28 -21 -13 -20 -12 -11 0
-1 -17 -13 -12 -11 -8 -4 -3 -2 -38 -32 -25 -28 -21 -20 0
-11 -12 -13 -17 -1 -20 -21 -25 -2 -28 -32 -3 -38 -4 -8 0
-11 -2 -25 -21 -20 -1 -17 -13 -12 -8 -4 -3 -38 -32 -28 0
-20 -21 -25 -2 -11 -28 -32 -3 -12 -38 -4 -13 -8 -17 -1 0
-20 -12 -3 -32 -28 -11 -2 -25 -21 -1 -17 -13 -8 -4 -38 0
-28 -32 -3 -12 -20 -38 -4 -13 -21 -8 -17 -25 -1 -2 -11 0
-28 -21 -13 -4 -38 -20 -12 -3 -32 -11 -2 -25 -1 -17 -8 0
-38 -4 -13 -21 -28 -8 -17 -25 -32 -1 -2 -3 -11 -12 -20 0
-8 -17 -25 -32 -38 -1 -2 -3 -4 -11 -12 -13 -20 -21 -28 0
-38 -32 -25 -17 -8 -28 -21 -13 -4 -20 -12 -3 -11 -2 -1 0
-1 -2 -3 -4 -9 -11 -12 -13 -18 -20 -21 -26 -28 -33 -39 0
-9 -4 -3 -2 -1 -39 -33 -26 -18 -28 -21 -13 -20 -12 -11 0
-1 -18 -13 -12 -11 -9 -4 -3 -2 -39 -33 -26 -28 -21 -20 0
-11 -12 -13 -18 -1 -20 -21 -26 -2 -28 -33 -3 -39 -4 -9 0
-11 -2 -26 -21 -20 -1 -18 -13 -12 -9 -4 -3 -39 -33 -28 0
-20 -21 -26 -2 -11 -28 -33 -3 -12 -39 -4 -13 -9 -18 -1 0
-20 -12 -3 -33 -28 -11 -2 -26 -21 -1 -18 -13 -9 -4 -39 0
-28 -33 -3 -12 -20 -39 -4 -13 -21 -9 -18 -26 -1 -2 -11 0
-28 -21 -13 -4 -39 -20 -12 -3 -33 -11 -2 -26 -1 -18 -9 0
-39 -4 -13 -21 -28 -9 -18 -26 -33 -1 -2 -3 -11 -12 -20 0
-9 -18 -26 -33 -39 -1 -2 -3 -4 -11 -12 -13 -20 -21 -28 0
-39 -33 -26 -18 -9 -28 -21 -13 -4 -20 -12 -3 -11 -2 -1 0
-1 -2 -3 -4 -10 -11 -12 -13 -19 -20 -21 -27 -28 -34 -40 0
-10 -4 -3 -2 -1 -40 -34 -27 -19 -28 -21 -13 -20 -12 -11 0
-1 -19 -13 -12 -11 -10 -4 -3 -2 -40 -34 -27 -28 -21 -20 0
-11 -12 -13 -19 -1 -20 -21 -27 -2 -28 -34 -3 -40 -4 -10 0
-11 -2 -27 -21 -20 -1 -19 -13 -12 -10 -4 -3 -40 -34 -28 0
-20 -21 -27 -2 -11 -28 -34 -3 -12 -40 -4 -13 -10 -19 -1 0
-20 -12 -3 -34 -28 -11 -2 -27 -21 -1 -19 -13 -10 -4 -40 0
-28 -34 -3 -12 -20 -40 -4 -13 -21 -10 -19 -27 -1 -2 -11 0
-28 -21 -13 -4 -40 -20 -12 -3 -34 -11 -2 -27 -1 -19 -10 0
-40 -4 -13 -21 -28 -10 -19 -27 -34 -1 -2 -3 -11 -12 -20 0
-10 -19 -27 -34 -40 -1 -2 -3 -4 -11 -12 -13 -20 -21 -28 0
-40 -34 -27 -19 -10 -28 -21 -13 -4 -20 -12 -3 -11 -2 -1 0
-1 -2 -3 -5 -6 -11 -12 -14 -15 -20 -22 -23 -29 -30 -41 0
-6 -5 -3 -2 -1 -41 -30 -23 -15 -29 -22 -14 -20 -12 -11 0
-1 -15 -14 -12 -11 -6 -5 -3 -2 -41 -30 -23 -29 -22 -20 0
-11 -12 -14 -15 -1 -20 -22 -23 -2 -29 -30 -3 -41 -5 -6 0
-11 -2 -23 -22 -20 -1 -15 -14 -12 -6 -5 -3 -41 -30 -29 0
-20 -22 -23 -2 -11 -29 -30 -3 -12 -41 -5 -14 -6 -15 -1 0
-20 -12 -3 -30 -29 -11 -2 -23 -22 -1 -15 -14 -6 -5 -41 0
-29 -30 -3 -12 -20 -41 -5 -14 -22 -6 -15 -23 -1 -2 -11 0
-29 -22 -14 -5 -41 -20 -12 -3 -30 -11 -2 -23 -1 -15 -6 0
-41 -5 -14 -22 -29 -6 -15 -23 -30 -1 -2 -3 -11 -12 -20 0
-6 -15 -23 -30 -41 -1 -2 -3 -5 -11 -12 -14 -20 -22 -29 0
-41 -30 -23 -15 -6 -29 -22 -14 -5 -20 -12 -3 -11 -2 -1 0
-1 -2 -3 -5 -7 -11 -12 -14 -16 -20 -22 -24 -29 -31 -42 0
-7 -5 -3 -2 -1 -42 -31 -24 -16 -29 -22 -14 -20 -12 -11 0
-1 -16 -14 -12 -11 -7 -5 -3 -2 -42 -31 -24 -29 -22 -20 0
-11 -12 -14 -16 -1 -20 -22 -24 -2 -29 -31 -3 -42 -5 -7 0
-11 -2 -24 -22 -20 -1 -16 -14 -12 -7 -5 -3 -42 -31 -29 0
-20 -22 -24 -2 -11 -29 -31 -3 -12 -42 -5 -14 -7 -16 -1 0
-20 -12 -3 -31 -29 -11 -2 -24 -22 -1 -16 -14 -7 -5 -42 0
-29 -31 -3 -12 -20 -42 -5 -14 -22 -7 -16 -24 -1 -2 -11 0
-29 -22 -14 -5 -42 -20 -12 -3 -31 -11 -2 -24 -1 -16 -7 0
-42 -5 -14 -22 -29 -7 -16 -24 -31 -1 -2 -3 -11 -12 -20 0
-7 -16 -24 -31 -42 -1 -2 -3 -5 -11 -12 -14 -20 -22 -29 0
-42 -31 -24 -16 -7 -29 -22 -14 -5 -20 -12 -3 -11 -2 -1 0
-1 -2 -3 -5 -8 -11 -12 -14 -17 -20 -22 -25 -29 -32 -43 0
-8 -5 -3 -2 -1 -43 -32 -25 -17 -29 -22 -14 -20 -12 -11 0
-1 -17 -14 -12 -11 -8 -5 -3 -2 -43 -32 -25 -29 -22 -20 0
-11 -12 -14 -17 -1 -20 -22 -25 -2 -29 -32 -3 -43 -5 -8 0
-11 -2 -25 -22 -20 -1 -17 -14 -12 -8 -5 -3 -43 -32 -29 0
-20 -22 -25 -2 -11 -29 -32 -3 -12 -43 -5 -14 -8 -17 -1 0
-20 -12 -3 -32 -29 -11 -2 -25 -22 -1 -17 -14 -8 -5 -43 0
-29 -32 -3 -12 -20 -43 -5 -14 -22 -8 -17 -25 -1 -2 -11 0
-29 -22 -14 -5 -43 -20 -12 -3 -32 -11 -2 -25 -1 -17 -8 0
-43 -5 -14 -22 -29 -8 -17 -25 -32 -1 -2 -3 -11 -12 -20 0
-8 -17 -25 -32 -43 -1 -2 -3 -5 -11 -12 -14 -20 -22 -29 0
-43 -32 -25 -17 -8 -29 -22 -14 -5 -20 -12 -3 -11 -2 -1 0
-1 -2 -3 -5 -9 -11 -12 -14 -18 -20 -22 -26 -29 -33 -44 0
-9 -5 -3 -2 -1 -44 -33 -26 -18 -29 -22 -14 -20 -12 -11 0
-1 -18 -14 -12 -11 -9 -5 -3 -2 -44 -33 -26 -29 -22 -20 0
-11 -12 -14 -18 -1 -20 -22 -26 -2 -29 -33 -3 -44 -5 -9 0
-11 -2 -26 -22 -20 -1 -18 -14 -12 -9 -5 -3 -44 -33 -29 0
-20 -22 -26 -2 -11 -29 -33 -3 -12 -44 -5 -14 -9 -18 -1 0
-20 -12 -3 -33 -29 -11 -2 -26 -22 -1 -18 -14 -9 -5 -44 0
-29 -33 -3 -12 -20 -44 -5 -14 -22 -9 -18 -26 -1 -2 -11 0
-29 -22 -14 -5 -44 -20 -12 -3 -33 -11 -2 -26 -1 -18 -9 0
-44 -5 -14 -22 -29 -9 -18 -26 -33 -1 -2 -3 -11 -12 -20 0
-9 -18 -26 -33 -44 -1 -2 -3 -5 -11 -12 -14 -20 -22 -29 0
-44 -33 -26 -18 -9 -29 -22 -14 -5 -20 -12 -3 -11 -2 -1 0
-1 -2 -3 -5 -10 -11 -12 -14 -19 -20 -22 -27 -29 -34 -45 0
-10 -5 -3 -2 -1 -45 -34 -27 -19 -29 -22 -14 -20 -12 -11 0
-1 -19 -14 -12 -11 -10 -5 -3 -2 -45 -34 -27 -29 -22 -20 0
-11 -12 -14 -19 -1 -20 -22 -27 -2 -29 -34 -3 -45 -5 -10 0
-11 -2 -27 -22 -20 -1 -19 -14 -12 -10 -5 -3 -45 -34 -29 0
-20 -22 -27 -2 -11 -29 -34 -3 -12 -45 -5 -14 -10 -19 -1 0
-20 -12 -3 -34 -29 -11 -2 -27 -22 -1 -19 -14 -10 -5 -45 0
-29 -34 -3 -12 -20 -45 -5 -14 -22 -10 -19 -27 -1 -2 -11 0
-29 -22 -14 -5 -45 -20 -12 -3 -34 -11 -2 -27 -1 -19 -10 0
-45 -5 -14 -22 -29 -10 -19 -27 -34 -1 -2 -3 -11 -12 -20 0
-10 -19 -27 -34 -45 -1 -2 -3 -5 -11 -12 -14 -20 -22 -29 0
-45 -34 -27 -19 -10 -29 -22 -14 -5 -20 -12 -3 -11 -2 -1 0
-1 -2 -3 -6 -7 -11 -12 -15 -16 -20 -23 -24 -30 -31 -46 0
-7 -6 -3 -2 -1 -46 -31 -24 -16 -30 -23 -15 -20 -12 -11 0
-1 -16 -15 -12 -11 -7 -6 -3 -2 -46 -31 -24 -30 -23 -20 0
-11 -12 -15 -16 -1 -20 -23 -24 -2 -30 -31 -3 -46 -6 -7 0
-11 -2 -24 -23 -20 -1 -16 -15 -12 -7 -6 -3 -46 -31 -30 0
-20 -23 -24 -2 -11 -30 -31 -3 -12 -46 -6 -15 -7 -16 -1 0
-20 -12 -3 -31 -30 -11 -2 -24 -23 -1 -16 -15 -7 -6 -46 0
-30 -31 -3 -12 -20 -46 -6 -15 -23 -7 -16 -24 -1 -2 -11 0
-30 -23 -15 -6 -46 -20 -12 -3 -31 -11 -2 -24 -1 -16 -7 0
-46 -6 -15 -23 -30 -7 -16 -24 -31 -1 -2 -3 -11 -12 -20 0
-7 -16 -24 -31 -46 -1 -2 -3 -6 -11 -12 -15 -20 -23 -30 0
-46 -31 -24 -16 -7 -30 -23 -15 -6 -20 -12 -3 -11 -2 -1 0
-1 -2 -3 -6 -8 -11 -12 -15 -17 -20 -23 -25 -30 -32 -47 0
-8 -6 -3 -2 -1 -47 -32 -25 -17 -30 -23 -15 -20 -12 -11 0
-1 -17 -15 -12 -11 -8 -6 -3 -2 -47 -32 -25 -30 -23 -20 0
-11 -12 -15 -17 -1 -20 -23 -25 -2 -30 -32 -3 -47 -6 -8 0
-11 -2 -25 -23 -20 -1 -17 -15 -12 -8 -6 -3 -47 -32 -30 0
-20 -23 -25 -2 -11 -30 -32 -3 -12 -47 -6 -15 -8 -17 -1 0
-20 -12 -3 -32 -30 -11 -2 -25 -23 -1 -17 -15 -8 -6 -47 0
-30 -32 -3 -12 -20 -47 -6 -15 -23 -8 -17 -25 -1 -2 -11 0
-30 -23 -15 -6 -47 -20 -12 -3 -32 -11 -2 -25 -1 -17 -8 0
-47 -6 -15 -23 -30 -8 -17 -25 -32 -1 -2 -3 -11 -12 -20 0
-8 -17 -25 -32 -47 -1 -2 -3 -6 -11 -12 -15 -20 -23 -30 0
-47 -32 -25 -17 -8 -30 -23 -15 -6 -20 -12 -3 -11 -2 -1 0
-1 -2 -3 -6 -9 -11 -12 -15 -18 -20 -23 -26 -30 -33 -48 0
-9 -6 -3 -2 -1 -48 -33 -26 -18 -30 -23 -15 -20 -12 -11 0
-1 -18 -15 -12 -11 -9 -6 -3 -2 -48 -33 -26 -30 -23 -20 0
-11 -12 -15 -18 -1 -20 -23 -26 -2 -30 -33 -3 -48 -6 -9 0
-11 -2 -26 -23 -20 -1 -18 -15 -12 -9 -6 -3 -48 -33 -30 0
-20 -23 -26 -2 -11 -30 -33 -3 -12 -48 -6 -15 -9 -18 -1 0
-20 -12 -3 -33 -30 -11 -2 -26 -23 -1 -18 -15 -9 -6 -48 0
-30 -33 -3 -12 -20 -48 -6 -15 -23 -9 -18 -26 -1 -2 -11 0
-30 -23 -15 -6 -48 -20 -12 -3 -33 -11 -2 -26 -1 -18 -9 0
-48 -6 -15 -23 -30 -9 -18 -26 -33 -1 -2 -3 -11 -12 -20 0
-9 -18 -26 -33 -48 -1 -2 -3 -6 -11 -12 -15 -20 -23 -30 0
-48 -33 -26 -18 -9 -30 -23 -15 -6 -20 -12 -3 -11 -2 -1 0
-1 -2 -3 -6 -10 -11 -12 -15 -19 -20 -23 -27 -30 -34 -49 0
-10 -6 -3 -2 -1 -49 -34 -27 -19 -30 -23 -15 -20 -12 -11 0
-1 -19 -15 -12 -11 -10 -6 -3 -2 -49 -34 -27 -30 -23 -20 0
-11 -12 -15 -19 -1 -20 -23 -27 -2 -30 -34 -3 -49 -6 -10 0
-11 -2 -27 -23 -20 -1 -19 -15 -12 -10 -6 -3 -49 -34 -30 0
-20 -23 -27 -2 -11 -30 -34 -3 -12 -49 -6 -15 -10 -19 -1 0
-20 -12 -3 -34 -30 -11 -2 -27 -23 -1 -19 -15 -10 -6 -49 0
-30 -34 -3 -12 -20 -49 -6 -15 -23 -10 -19 -27 -1 -2 -11 0
-30 -23 -15 -6 -49 -20 -12 -3 -34 -11 -2 -27 -1 -19 -10 0
-49 -6 -15 -23 -30 -10 -19 -27 -34 -1 -2 -3 -11 -12 -20 0
-10 -19 -27 -34 -49 -1 -2 -3 -6 -11 -12 -15 -20 -23 -30 0
-49 -34 -27 -19 -10 -30 -23 -15 -6 -20 -12 -3 -11 -2 -1 0
-1 -2 -3 -7 -8 -11 -12 -16 -17 -20 -24 -25 -31 -32 -50 0
-8 -7 -3 -2 -1 -50 -32 -25 -17 -31 -24 -16 -20 -12 -11 0
-1 -17 -16 -12 -11 -8 -7 -3 -2 -50 -32 -25 -31 -24 -20 0
-11 -12 -16 -17 -1 -20 -24 -25 -2 -31 -32 -3 -50 -7 -8 0
-11 -2 -25 -24 -20 -1 -17 -16 -12 -8 -7 -3 -50 -32 -31 0
-20 -24 -25 -2 -11 -31 -32 -3 -12 -50 -7 -16 -8 -17 -1 0
-20 -12 -3 -32 -31 -11 -2 -25 -24 -1 -17 -16 -8 -7 -50 0
-31 -32 -3 -12 -20 -50 -7 -16 -24 -8 -17 -25 -1 -2 -11 0
-31 -24 -16 -7 -50 -20 -12 -3 -32 -11 -2 -25 -1 -17 -8 0
-50 -7 -16 -24 -31 -8 -17 -25 -32 -1 -2 -3 -11 -12 -20 0
-8 -17 -25 -32 -50 -1 -2 -3 -7 -11 -12 -16 -20 -24 -31 0
-50 -32 -25 -17 -8 -31 -24 -16 -7 -20 -12 -3 -11 -2 -1 0
-1 -2 -3 -7 -9 -11 -12 -16 -18 -20 -24 -26 -31 -33 -51 0
-9 -7 -3 -2 -1 -51 -33 -26 -18 -31 -24 -16 -20 -12 -11 0
-1 -18 -16 -12 -11 -9 -7 -3 -2 -51 -33 -26 -31 -24 -20 0
-11 -12 -16 -18 -1 -20 -24 -26 -2 -31 -33 -3 -51 -7 -9 0
-11 -2 -26 -24 -20 -1 -18 -16 -12 -9 -7 -3 -51 -33 -31 0
-20 -24 -26 -2 -11 -31 -33 -3 -12 -51 -7 -16 -9 -18 -1 0
-20 -12 -3 -33 -31 -11 -2 -26 -24 -1 -18 -16 -9 -7 -51 0
-31 -33 -3 -12 -20 -51 -7 -16 -24 -9 -18 -26 -1 -2 -11 0
-31 -24 -16 -7 -51 -20 -12 -3 -33 -11 -2 -26 -1 -18 -9 0
-51 -7 -16 -24 -31 -9 -18 -26 -33 -1 -2 -3 -11 -12 -20 0
-9 -18 -26 -33 -51 -1 -2 -3 -7 -11 -12 -16 -20 -24 -31 0
-51 -33 -26 -18 -9 -31 -24 -16 -7 -20 -12 -3 -11 -2 -1 0
-1 -2 -3 -7 -10 -11 -12 -16 -19 -20 -24 -27 -31 -34 -52 0
-10 -7 -3 -2 -1 -52 -34 -27 -19 -31 -24 -16 -20 -12 -11 0
-1 -19 -16 -12 -11 -10 -7 -3 -2 -52 -34 -27 -31 -24 -20 0
-11 -12 -16 -19 -1 -20 -24 -27 -2 -31 -34 -3 -52 -7 -10 0
-11 -2 -27 -24 -20 -1 -19 -16 -12 -10 -7 -3 -52 -34 -31 0
-20 -24 -27 -2 -11 -31 -34 -3 -12 -52 -7 -16 -10 -19 -1 0
-20 -12 -3 -34 -31 -11 -2 -27 -24 -1 -19 -16 -10 -7 -52 0
-31 -34 -3 -12 -20 -52 -7 -16 -24 -10 -19 -27 -1 -2 -11 0
-31 -24 -16 -7 -52 -20 -12 -3 -34 -11 -2 -27 -1 -19 -10 0
-52 -7 -16 -24 -31 -10 -19 -27 -34 -1 -2 -3 -11 -12 -20 0
-10 -19 -27 -34 -52 -1 -2 -3 -7 -11 -12 -16 -20 -24 -31 0
-52 -34 -27 -19 -10 -31 -24 -16 -7 -20 -12 -3 -11 -2 -1 0
-1 -2 -3 -8 -9 -11 -12 -17 -18 -20 -25 -26 -32 -33 -53 0
-9 -8 -3 -2 -1 -53 -33 -26 -18 -32 -25 -17 -20 -12 -11 0
-1 -18 -17 -12 -11 -9 -8 -3 -2 -53 -33 -26 -32 -25 -20 0
-11 -12 -17 -18 -1 -20 -25 -26 -2 -32 -33 -3 -53 -8 -9 0
-11 -2 -26 -25 -20 -1 -18 -17 -12 -9 -8 -3 -53 -33 -32 0
-20 -25 -26 -2 -11 -32 -33 -3 -12 -53 -8 -17 -9 -18 -1 0
-20 -12 -3 -33 -32 -11 -2 -26 -25 -1 -18 -17 -9 -8 -53 0
-32 -33 -3 -12 -20 -53 -8 -17 -25 -9 -18 -26 -1 -2 -11 0
-32 -25 -17 -8 -53 -20 -12 -3 -33 -11 -2 -26 -1 -18 -9 0
-53 -8 -17 -25 -32 -9 -18 -26 -33 -1 -2 -3 -11 -12 -20 0
-9 -18 -26 -33 -53 -1 -2 -3 -8 -11 -12 -17 -20 -25 -32 0
-53 -33 -26 -18 -9 -32 -25 -17 -8 -20 -12 -3 -11 -2 -1 0
-1 -2 -3 -8 -10 -11 -12 -17 -19 -20 -25 -27 -32 -34 -54 0
-10 -8 -3 -2 -1 -54 -34 -27 -19 -32 -25 -17 -20 -12 -11 0
-1 -19 -17 -12 -11 -10 -8 -3 -2 -54 -34 -27 -32 -25 -20 0
-11 -12 -17 -19 -1 -20 -25 -27 -2 -32 -34 -3 -54 -8 -10 0
-11 -2 -27 -25 -20 -1 -19 -17 -12 -10 -8 -3 -54 -34 -32 0
-20 -25 -27 -2 -11 -32 -34 -3 -12 -54 -8 -17 -10 -19 -1 0
-20 -12 -3 -34 -32 -11 -2 -27 -25 -1 -19 -17 -10 -8 -54 0
-32 -34 -3 -12 -20 -54 -8 -17 -25 -10 -19 -27 -1 -2 -11 0
-32 -25 -17 -8 -54 -20 -12 -3 -34 -11 -2 -27 -1 -19 -10 0
-54 -8 -17 -25 -32 -10 -19 -27 -34 -1 -2 -3 -11 -12 -20 0
-10 -19 -27 -34 -54 -1 -2 -3 -8 -11 -12 -17 -20 -25 -32 0
-54 -34 -27 -19 -10 -32 -25 -17 -8 -20 -12 -3 -11 -2 -1 0
-1 -2 -3 -9 -10 -11 -12 -18 -19 -20 -26 -27 -33 -34 -55 0
-10 -9 -3 -2 -1 -55 -34 -27 -19 -33 -26 -18 -20 -12 -11 0
-1 -19 -18 -12 -11 -10 -9 -3 -2 -55 -34 -27 -33 -26 -20 0
-11 -12 -18 -19 -1 -20 -26 -27 -2 -33 -34 -3 -55 -9 -10 0
-11 -2 -27 -26 -20 -1 -19 -18 -12 -10 -9 -3 -55 -34 -33 0
-20 -26 -27 -2 -11 -33 -34 -3 -12 -55 -9 -18 -10 -19 -1 0
-20 -12 -3 -34 -33 -11 -2 -27 -26 -1 -19 -18 -10 -9 -55 0
-33 -34 -3 -12 -20 -55 -9 -18 -26 -10 -19 -27 -1 -2 -11 0
-33 -26 -18 -9 -55 -20 -12 -3 -34 -11 -2 -27 -1 -19 -10 0
-55 -9 -18 -26 -33 -10 -19 -27 -34 -1 -2 -3 -11 -12 -20 0
-10 -19 -27 -34 -55 -1 -2 -3 -9 -11 -12 -18 -20 -26 -33 0
-55 -34 -27 -19 -10 -33 -26 -18 -9 -20 -12 -3 -11 -2 -1 0
-1 -2 -4 -5 -6 -11 -13 -14 -15 -21 -22 -23 -35 -36 -41 0
-6 -5 -4 -2 -1 -41 -36 -23 -15 -35 -22 -14 -21 -13 -11 0
-1 -15 -14 -13 -11 -6 -5 -4 -2 -41 -36 -23 -35 -22 -21 0
-11 -13 -14 -15 -1 -21 -22 -23 -2 -35 -36 -4 -41 -5 -6 0
-11 -2 -23 -22 -21 -1 -15 -14 -13 -6 -5 -4 -41 -36 -35 0
-21 -22 -23 -2 -11 -35 -36 -4 -13 -41 -5 -14 -6 -15 -1 0
-21 -13 -4 -36 -35 -11 -2 -23 -22 -1 -15 -14 -6 -5 -41 0
-35 -36 -4 -13 -21 -41 -5 -14 -22 -6 -15 -23 -1 -2 -11 0
-35 -22 -14 -5 -41 -21 -13 -4 -36 -11 -2 -23 -1 -15 -6 0
-41 -5 -14 -22 -35 -6 -15 -23 -36 -1 -2 -4 -11 -13 -21 0
-6 -15 -23 -36 -41 -1 -2 -4 -5 -11 -13 -14 -21 -22 -35 0
-41 -36 -23 -15 -6 -35 -22 -14 -5 -21 -13 -4 -11 -2 -1 0
-1 -2 -4 -5 -7 -11 -13 -14 -16 -21 -22 -24 -35 -37 -42 0
-7 -5 -4 -2 -1 -42 -37 -24 -16 -35 -22 -14 -21 -13 -11 0
-1 -16 -14 -13 -11 -7 -5 -4 -2 -42 -37 -24 -35 -22 -21 0
-11 -13 -14 -16 -1 -21 -22 -24 -2 -35 -37 -4 -42 -5 -7 0
-11 -2 -24 -22 -21 -1 -16 -14 -13 -7 -5 -4 -42 -37 -35 0
-21 -22 -24 -2 -11 -35 -37 -4 -13 -42 -5 -14 -7 -16 -1 0
-21 -13 -4 -37 -35 -11 -2 -24 -22 -1 -16 -14 -7 -5 -42 0
-35 -37 -4 -13 -21 -42 -5 -14 -22 -7 -16 -24 -1 -2 -11 0
-35 -22 -14 -5 -42 -21 -13 -4 -37 -11 -2 -24 -1 -16 -7 0
-42 -5 -14 -22 -35 -7 -16 -24 -37 -1 -2 -4 -11 -13 -21 0
-7 -16 -24 -37 -42 -1 -2 -4 -5 -11 -13 -14 -21 -22 -35 0
-42 -37 -24 -16 -7 -35 -22 -14 -5 -21 -13 -4 -11 -2 -1 0
-1 -2 -4 -5 -8 -11 -13 -14 -17 -21 -22 -25 -35 -38 -43 0
-8 -5 -4 -2 -1 -43 -38 -25 -17 -35 -22 -14 -21 -13 -11 0
-1 -17 -14 -13 -11 -8 -5 -4 -2 -43 -38 -25 -35 -22 -21 0
-11 -13 -14 -17 -1 -21 -22 -25 -2 -35 -38 -4 -43 -5 -8 0
-11 -2 -25 -22 -21 -1 -17 -14 -13 -8 -5 -4 -43 -38 -35 0
-21 -22 -25 -2 -11 -35 -38 -4 -13 -43 -5 -14 -8 -17 -1 0
-21 -13 -4 -38 -35 -11 -2 -25 -22 -1 -17 -14 -8 -5 -43 0
-35 -38 -4 -13 -21 -43 -5 -14 -22 -8 -17 -25 -1 -2 -11 0
-35 -22 -14 -5 -43 -21 -13 -4 -38 -11 -2 -25 -1 -17 -8 0
-43 -5 -14 -22 -35 -8 -17 -25 -38 -1 -2 -4 -11 -13 -21 0
-8 -17 -25 -38 -43 -1 -2 -4 -5 -11 -13 -14 -21 -22 -35 0
-43 -38 -25 -17 -8 -35 -22 -14 -5 -21 -13 -4 -11 -2 -1 0
-1 -2 -4 -5 -9 -11 -13 -14 -18 -21 -22 -26 -35 -39 -44 0
-9 -5 -4 -2 -1 -44 -39 -26 -18 -35 -22 -14 -21 -13 -11 0
-1 -18 -14 -13 -11 -9 -5 -4 -2 -44 -39 -26 -35 -22 -21 0
-11 -13 -14 -18 -1 -21 -22 -26 -2 -35 -39 -4 -44 -5 -9 0
-11 -2 -26 -22 -21 -1 -18 -14 -13 -9 -5 -4 -44 -39 -35 0
-21 -22 -26 -2 -11 -35 -39 -4 -13 -44 -5 -14 -9 -18 -1 0
-21 -13 -4 -39 -35 -11 -2 -26 -22 -1 -18 -14 -9 -5 -44 0
-35 -39 -4 -13 -21 -44 -5 -14 -22 -9 -18 -26 -1 -2 -11 0
-35 -22 -14 -5 -44 -21 -13 -4 -39 -11 -2 -26 -1 -18 -9 0
-44 -5 -14 -22 -35 -9 -18 -26 -39 -1 -2 -4 -11 -13 -21 0
-9 -18 -26 -39 -44 -1 -2 -4 -5 -11 -13 -14 -21 -22 -35 0
-44 -39 -26 -18 -9 -35 -22 -14 -5 -21 -13 -4 -11 -2 -1 0
-1 -2 -4 -5 -10 -11 -13 -14 -19 -21 -22 -27 -35 -40 -45 0
-10 -5 -4 -2 -1 -45 -40 -27 -19 -35 -22 -14 -21 -13 -11 0
-1 -19 -14 -13 -11 -10 -5 -4 -2 -45 -40 -27 -35 -22 -21 0
-11 -13 -14 -19 -1 -21 -22 -27 -2 -35 -40 -4 -45 -5 -10 0
-11 -2 -27 -22 -21 -1 -19 -14 -13 -10 -5 -4 -45 -40 -35 0
-21 -22 -27 -2 -11 -35 -40 -4 -13 -45 -5 -14 -10 -19 -1 0
-21 -13 -4 -40 -35 -11 -2 -27 -22 -1 -19 -14 -10 -5 -45 0
-35 -40 -4 -13 -21 -45 -5 -14 -22 -10 -19 -27 -1 -2 -11 0
-35 -22 -14 -5 -45 -21 -13 -4 -40 -11 -2 -27 -1 -19 -10 0
-45 -5 -14 -22 -35 -10 -19 -27 -40 -1 -2 -4 -11 -13 -21 0
-10 -19 -27 -40 -45 -1 -2 -4 -5 -11 -13 -14 -21 -22 -35 0
-45 -40 -27 -19 -10 -35 -22 -14 -5 -21 -13 -4 -11 -2 -1 0
-1 -2 -4 -6 -7 -11 -13 -15 -16 -21 -23 -24 -36 -37 -46 0
-7 -6 -4 -2 -1 -46 -37 -24 -16 -36 -23 -15 -21 -13 -11 0
-1 -16 -15 -13 -11 -7 -6 -4 -2 -46 -37 -24 -36 -23 -21 0
-11 -13 -15 -16 -1 -21 -23 -24 -2 -36 -37 -4 -46 -6 -7 0
-11 -2 -24 -23 -21 -1 -16 -15 -13 -7 -6 -4 -46 -37 -36 0
-21 -23 -24 -2 -11 -36 -37 -4 -13 -46 -6 -15 -7 -16 -1 0
-21 -13 -4 -37 -36 -11 -2 -24 -23 -1 -16 -15 -7 -6 -46 0
-36 -37 -4 -13 -21 -46 -6 -15 -23 -7 -16 -24 -1 -2 -11 0
-36 -23 -15 -6 -46 -21 -13 -4 -37 -11 -2 -24 -1 -16 -7 0
-46 -6 -15 -23 -36 -7 -16 -24 -37 -1 -2 -4 -11 -13 -21 0
-7 -16 -24 -37 -46 -1 -2 -4 -6 -11 -13 -15 -21 -23 -36 0
-46 -37 -24 -16 -7 -36 -23 -15 -6 -21 -13 -4 -11 -2 -1 0
-1 -2 -4 -6 -8 -11 -13 -15 -17 -21 -23 -25 -36 -38 -47 0
-8 -6 -4 -2 -1 -47 -38 -25 -17 -36 -23 -15 -21 -13 -11 0
-1 -17 -15 -13 -11 -8 -6 -4 -2 -47 -38 -25 -36 -23 -21 0
-11 -13 -15 -17 -1 -21 -23 -25 -2 -36 -38 -4 -47 -6 -8 0
-11 -2 -25 -23 -21 -1 -17 -15 -13 -8 -6 -4 -47 -38 -36 0
-21 -23 -25 -2 -11 -36 -38 -4 -13 -47 -6 -15 -8 -17 -1 0
-21 -13 -4 -38 -36 -11 -2 -25 -23 -1 -17 -15 -8 -6 -47 0
-36 -38 -4 -13 -21 -47 -6 -15 -23 -8 -17 -25 -1 -2 -11 0
-36 -23 -15 -6 -47 -21 -13 -4 -38 -11 -2 -25 -1 -17 -8 0
-47 -6 -15 -23 -36 -8 -17 -25 -38 -1 -2 -4 -11 -13 -21 0
-8 -17 -25 -38 -47 -1 -2 -4 -6 -11 -13 -15 -21 -23 -36 0
-47 -38 -25 -17 -8 -36 -23 -15 -6 -21 -13 -4 -11 -2 -1 0
-1 -2 -4 -6 -9 -11 -13 -15 -18 -21 -23 -26 -36 -39 -48 0
-9 -6 -4 -2 -1 -48 -39 -26 -18 -36 -23 -15 -21 -13 -11 0
-1 -18 -15 -13 -11 -9 -6 -4 -2 -48 -39 -26 -36 -23 -21 0
-11 -13 -15 -18 -1 -21 -23 -26 -2 -36 -39 -4 -48 -6 -9 0
-11 -2 -26 -23 -21 -1 -18 -15 -13 -9 -6 -4 -48 -39 -36 0
-21 -23 -26 -2 -11 -36 -39 -4 -13 -48 -6 -15 -9 -18 -1 0
-21 -13 -4 -39 -36 -11 -2 -26 -23 -1 -18 -15 -9 -6 -48 0
-36 -39 -4 -13 -21 -48 -6 -15 -23 -9 -18 -26 -1 -2 -11 0
-36 -23 -15 -6 -48 -21 -13 -4 -39 -11 -2 -26 -1 -18 -9 0
-48 -6 -15 -23 -36 -9 -18 -26 -39 -1 -2 -4 -11 -13 -21 0
-9 -18 -26 -39 -48 -1 -2 -4 -6 -11 -13 -15 -21 -23 -36 0
-48 -39 -26 -18 -9 -36 -23 -15 -6 -21 -13 -4 -11 -2 -1 0
-1 -2 -4 -6 -10 -11 -13 -15 -19 -21 -23 -27 -36 -40 -49 0
-10 -6 -4 -2 -1 -49 -40 -27 -19 -36 -23 -15 -21 -13 -11 0
-1 -19 -15 -13 -11 -10 -6 -4 -2 -49 -40 -27 -36 -23 -21 0
-11 -13 -15 -19 -1 -21 -23 -27 -2 -36 -40 -4 -49 -6 -10 0
-11 -2 -27 -23 -21 -1 -19 -15 -13 -10 -6 -4 -49 -40 -36 0
-21 -23 -27 -2 -11 -36 -40 -4 -13 -49 -6 -15 -10 -19 -1 0
-21 -13 -4 -40 -36 -11 -2 -27 -23 -1 -19 -15 -10 -6 -49 0
-36 -40 -4 -13 -21 -49 -6 -15 -23 -10 -19 -27 -1 -2 -11 0
-36 -23 -15 -6 -49 -21 -13 -4 -40 -11 -2 -27 -1 -19 -10 0
-49 -6 -15 -23 -36 -10 -19 -27 -40 -1 -2 -4 -11 -13 -21 0
-10 -19 -27 -40 -49 -1 -2 -4 -6 -11 -13 -15 -21 -23 -36 0
-49 -40 -27 -19 -10 -36 -23 -15 -6 -21 -13 -4 -11 -2 -1 0
-1 -2 -4 -7 -8 -11 -13 -16 -17 -21 -24 -25 -37 -38 -50 0
-8 -7 -4 -2 -1 -50 -38 -25 -17 -37 -24 -16 -21 -13 -11 0
-1 -17 -16 -13 -11 -8 -7 -4 -2 -50 -38 -25 -37 -24 -21 0
-11 -13 -16 -17 -1 -21 -24 -25 -2 -37 -38 -4 -50 -7 -8 0
-11 -2 -25 -24 -21 -1 -17 -16 -13 -8 -7 -4 -50 -38 -37 0
-21 -24 -25 -2 -11 -37 -38 -4 -13 -50 -7 -16 -8 -17 -1 0
-21 -13 -4 -38 -37 -11 -2 -25 -24 -1 -17 -16 -8 -7 -50 0
-37 -38 -4 -13 -21 -50 -7 -16 -24 -8 -17 -25 -1 -2 -11 0
-37 -24 -16 -7 -50 -21 -13 -4 -38 -11 -2 -25 -1 -17 -8 0
-50 -7 -16 -24 -37 -8 -17 -25 -38 -1 -2 -4 -11 -13 -21 0
-8 -17 -25 -38 -50 -1 -2 -4 -7 -11 -13 -16 -21 -24 -37 0
-50 -38 -25 -17 -8 -37 -24 -16 -7 -21 -13 -4 -11 -2 -1 0
-1 -2 -4 -7 -9 -11 -13 -16 -18 -21 -24 -26 -37 -39 -51 0
-9 -7 -4 -2 -1 -51 -39 -26 -18 -37 -24 -16 -21 -13 -11 0
-1 -18 -16 -13 -11 -9 -7 -4 -2 -51 -39 -26 -37 -24 -21 0
-11 -13 -16 -18 -1 -21 -24 -26 -2 -37 -39 -4 -51 -7 -9 0
-11 -2 -26 -24 -21 -1 -18 -16 -13 -9 -7 -4 -51 -39 -37 0
-21 -24 -26 -2 -11 -37 -39 -4 -13 -51 -7 -16 -9 -18 -1 0
-21 -13 -4 -39 -37 -11 -2 -26 -24 -1 -18 -16 -9 -7 -51 0
-37 -39 -4 -13 -21 -51 -7 -16 -24 -9 -18 -26 -1 -2 -11 0
-37 -24 -16 -7 -51 -21 -13 -4 -39 -11 -2 -26 -1 -18 -9 0
-51 -7 -16 -24 -37 -9 -18 -26 -39 -1 -2 -4 -11 -13 -21 0
-9 -18 -26 -39 -51 -1 -2 -4 -7 -11 -13 -16 -21 -24 -37 0
-51 -39 -26 -18 -9 -37 -24 -16 -7 -21 -13 -4 -11 -2 -1 0
-1 -2 -4 -7 -10 -11 -13 -16 -19 -21 -24 -27 -37 -40 -52 0
-10 -7 -4 -2 -1 -52 -40 -27 -19 -37 -24 -16 -21 -13 -11 0
-1 -19 -16 -13 -11 -10 -7 -4 -2 -52 -40 -27 -37 -24 -21 0
-11 -13 -16 -19 -1 -21 -24 -27 -2 -37 -40 -4 -52 -7 -10 0
-11 -2 -27 -24 -21 -1 -19 -16 -13 -10 -7 -4 -52 -40 -37 0
-21 -24 -27 -2 -11 -37 -40 -4 -13 -52 -7 -16 -10 -19 -1 0
-21 -13 -4 -40 -37 -11 -2 -27 -24 -1 -19 -16 -10 -7 -52 0
-37 -40 -4 -13 -21 -52 -7 -16 -24 -10 -19 -27 -1 -2 -11 0
-37 -24 -16 -7 -52 -21 -13 -4 -40 -11 -2 -27 -1 -19 -10 0
-52 -7 -16 -24 -37 -10 -19 -27 -40 -1 -2 -4 -11 -13 -21 0
-10 -19 -27 -40 -52 -1 -2 -4 -7 -11 -13 -16 -21 -24 -37 0
-52 -40 -27 -19 -10 -37 -24 -16 -7 -21 -13 -4 -11 -2 -1 0
-1 -2 -4 -8 -9 -11 -13 -17 -18 -21 -25 -26 -38 -39 -53 0
-9 -8 -4 -2 -1 -53 -39 -26 -18 -38 -25 -17 -21 -13 -11 0
-1 -18 -17 -13 -11 -9 -8 -4 -2 -53 -39 -26 -38 -25 -21 0
-11 -13 -17 -18 -1 -21 -25 -26 -2 -38 -39 -4 -53 -8 -9 0
-11 -2 -26 -25 -21 -1 -18 -17 -13 -9 -8 -4 -53 -39 -38 0
-21 -25 -26 -2 -11 -38 -39 -4 -13 -53 -8 -17 -9 -18 -1 0
-21 -13 -4 -39 -38 -11 -2 -26 -25 -1 -18 -17 -9 -8 -53 0
-38 -39 -4 -13 -21 -53 -8 -17 -25 -9 -18 -26 -1 -2 -11 0
-38 -25 -17 -8 -53 -21 -13 -4 -39 -11 -2 -26 -1 -18 -9 0
-53 -8 -17 -25 -38 -9 -18 -26 -39 -1 -2 -4 -11 -13 -21 0
-9 -18 -26 -39 -53 -1 -2 -4 -8 -11 -13 -17 -21 -25 -38 0
-53 -39 -26 -18 -9 -38 -25 -17 -8 -21 -13 -4 -11 -2 -1 0
-1 -2 -4 -8 -10 -11 -13 -17 -19 -21 -25 -27 -38 -40 -54 0
-10 -8 -4 -2 -1 -54 -40 -27 -19 -38 -25 -17 -21 -13 -11 0
-1 -19 -17 -13 -11 -10 -8 -4 -2 -54 -40 -27 -38 -25 -21 0
-11 -13 -17 -19 -1 -21 -25 -27 -2 -38 -40 -4 -54 -8 -10 0
-11 -2 -27 -25 -21 -1 -19 -17 -13 -10 -8 -4 -54 -40 -38 0
-21 -25 -27 -2 -11 -38 -40 -4 -13 -54 -8 -17 -10 -19 -1 0
-21 -13 -4 -40 -38 -11 -2 -27 -25 -1 -19 -17 -10 -8 -54 0
-38 -40 -4 -13 -21 -54 -8 -17 -25 -10 -19 -27 -1 -2 -11 0
-38 -25 -17 -8 -54 -21 -13 -4 -40 -11 -2 -27 -1 -19 -10 0
-54 -8 -17 -25 -38 -10 -19 -27 -40 -1 -2 -4 -11 -13 -21 0
-10 -19 -27 -40 -54 -1 -2 -4 -8 -11 -13 -17 -21 -25 -38 0
-54 -40 -27 -19 -10 -38 -25 -17 -8 -21 -13 -4 -11 -2 -1 0
-1 -2 -4 -9 -10 -11 -13 -18 -19 -21 -26 -27 -39 -40 -55 0
-10 -9 -4 -2 -1 -55 -40 -27 -19 -39 -26 -18 -21 -13 -11 0
-1 -19 -18 -13 -11 -10 -9 -4 -2 -55 -40 -27 -39 -26 -21 0
-11 -13 -18 -19 -1 -21 -26 -27 -2 -39 -40 -4 -55 -9 -10 0
-11 -2 -27 -26 -21 -1 -19 -18 -13 -10 -9 -4 -55 -40 -39 0
-21 -26 -27 -2 -11 -39 -40 -4 -13 -55 -9 -18 -10 -19 -1 0
-21 -13 -4 -40 -39 -11 -2 -27 -26 -1 -19 -18 -10 -9 -55 0
-39 -40 -4 -13 -21 -55 -9 -18 -26 -10 -19 -27 -1 -2 -11 0
-39 -26 -18 -9 -55 -21 -13 -4 -40 -11 -2 -27 -1 -19 -10 0
-55 -9 -18 -26 -39 -10 -19 -27 -40 -1 -2 -4 -11 -13 -21 0
-10 -19 -27 -40 -55 -1 -2 -4 -9 -11 -13 -18 -21 -26 -39 0
-55 -40 -27 -19 -10 -39 -26 -18 -9 -21 -13 -4 -11 -2 -1 0
-1 -2 -5 -6 -7 -11 -14 -15 -16 -22 -23 -24 -41 -42 -46 0
-7 -6 -5 -2 -1 -46 -42 -24 -16 -41 -23 -15 -22 -14 -11 0
-1 -16 -15 -14 -11 -7 -6 -5 -2 -46 -42 -24 -41 -23 -22 0
-11 -14 -15 -16 -1 -22 -23 -24 -2 -41 -42 -5 -46 -6 -7 0
-11 -2 -24 -23 -22 -1 -16 -15 -14 -7 -6 -5 -46 -42 -41 0
-22 -23 -24 -2 -11 -41 -42 -5 -14 -46 -6 -15 -7 -16 -1 0
-22 -14 -5 -42 -41 -11 -2 -24 -23 -1 -16 -15 -7 -6 -46 0
-41 -42 -5 -14 -22 -46 -6 -15 -23 -7 -16 -24 -1 -2 -11 0
-41 -23 -15 -6 -46 -22 -14 -5 -42 -11 -2 -24 -1 -16 -7 0
-46 -6 -15 -23 -41 -7 -16 -24 -42 -1 -2 -5 -11 -14 -22 0
-7 -16 -24 -42 -46 -1 -2 -5 -6 -11 -14 -15 -22 -23 -41 0
-46 -42 -24 -16 -7 -41 -23 -15 -6 -22 -14 -5 -11 -2 -1 0
-1 -2 -5 -6 -8 -11 -14 -15 -17 -22 -23 -25 -41 -43 -47 0
-8 -6 -5 -2 -1 -47 -43 -25 -17 -41 -23 -15 -22 -14 -11 0
-1 -17 -15 -14 -11 -8 -6 -5 -2 -47 -43 -25 -41 -23 -22 0
-11 -14 -15 -17 -1 -22 -23 -25 -2 -41 -43 -5 -47 -6 -8 0
-11 -2 -25 -23 -22 -1 -17 -15 -14 -8 -6 -5 -47 -43 -41 0
-22 -23 -25 -2 -11 -41 -43 -5 -14 -47 -6 -15 -8 -17 -1 0
-22 -14 -5 -43 -41 -11 -2 -25 -23 -1 -17 -15 -8 -6 -47 0
-41 -43 -5 -14 -22 -47 -6 -15 -23 -8 -17 -25 -1 -2 -11 0
-41 -23 -15 -6 -47 -22 -14 -5 -43 -11 -2 -25 -1 -17 -8 0
-47 -6 -15 -23 -41 -8 -17 -25 -43 -1 -2 -5 -11 -14 -22 0
-8 -17 -25 -43 -47 -1 -2 -5 -6 -11 -14 -15 -22 -23 -41 0
-47 -43 -25 -17 -8 -41 -23 -15 -6 -22 -14 -5 -11 -2 -1 0
-1 -2 -5 -6 -9 -11 -14 -15 -18 -22 -23 -26 -41 -44 -48 0
-9 -6 -5 -2 -1 -48 -44 -26 -18 -41 -23 -15 -22 -14 -11 0
-1 -18 -15 -14 -11 -9 -6 -5 -2 -48 -44 -26 -41 -23 -22 0
-11 -14 -15 -18 -1 -22 -23 -26 -2 -41 -44 -5 -48 -6 -9 0
-11 -2 -26 -23 -22 -1 -18 -15 -14 -9 -6 -5 -48 -44 -41 0
-22 -23 -26 -2 -11 -41 -44 -5 -14 -48 -6 -15 -9 -18 -1 0
-22 -14 -5 -44 -41 -11 -2 -26 -23 -1 -18 -15 -9 -6 -48 0
-41 -44 -5 -14 -22 -48 -6 -15 -23 -9 -18 -26 -1 -2 -11 0
-41 -23 -15 -6 -48 -22 -14 -5 -44 -11 -2 -26 -1 -18 -9 0
-48 -6 -15 -23 -41 -9 -18 -26 -44 -1 -2 -5 -11 -14 -22 0
-9 -18 -26 -44 -48 -1 -2 -5 -6 -11 -14 -15 -22 -23 -41 0
-48 -44 -26 -18 -9 -41 -23 -15 -6 -22 -14 -5 -11 -2 -1 0
-1 -2 -5 -6 -10 -11 -14 -15 -19 -22 -23 -27 -41 -45 -49 0
-10 -6 -5 -2 -1 -49 -45 -27 -19 -41 -23 -15 -22 -14 -11 0
-1 -19 -15 -14 -11 -10 -6 -5 -2 -49 -45 -27 -41 -23 -22 0
-11 -14 -15 -19 -1 -22 -23 -27 -2 -41 -45 -5 -49 -6 -10 0
-11 -2 -27 -23 -22 -1 -19 -15 -14 -10 -6 -5 -49 -45 -41 0
-22 -23 -27 -2 -11 -41 -45 -5 -14 -49 -6 -15 -10 -19 -1 0
-22 -14 -5 -45 -41 -11 -2 -27 -23 -1 -19 -15 -10 -6 -49 0
-41 -45 -5 -14 -22 -49 -6 -15 -23 -10 -19 -27 -1 -2 -11 0
-41 -23 -15 -6 -49 -22 -14 -5 -45 -11 -2 -27 -1 -19 -10 0
-49 -6 -15 -23 -41 -10 -19 -27 -45 -1 -2 -5 -11 -14 -22 0
-10 -19 -27 -45 -49 -1 -2 -5 -6 -11 -14 -15 -22 -23 -41 0
-49 -45 -27 -19 -10 -41 -23 -15 -6 -22 -14 -5 -11 -2 -1 0
-1 -2 -5 -7 -8 -11 -14 -16 -17 -22 -24 -25 -42 -43 -50 0
-8 -7 -5 -2 -1 -50 -43 -25 -17 -42 -24 -16 -22 -14 -11 0
-1 -17 -16 -14 -11 -8 -7 -5 -2 -50 -43 -25 -42 -24 -22 0
-11 -14 -16 -17 -1 -22 -24 -25 -2 -42 -43 -5 -50 -7 -8 0
-11 -2 -25 -24 -22 -1 -17 -16 -14 -8 -7 -5 -50 -43 -42 0
-22 -24 -25 -2 -11 -42 -43 -5 -14 -50 -7 -16 -8 -17 -1 0
-22 -14 -5 -43 -42 -11 -2 -25 -24 -1 -17 -16 -8 -7 -50 0
-42 -43 -5 -14 -22 -50 -7 -16 -24 -8 -17 -25 -1 -2 -11 0
-42 -24 -16 -7 -50 -22 -14 -5 -43 -11 -2 -25 -1 -17 -8 0
-50 -7 -16 -24 -42 -8 -17 -25 -43 -1 -2 -5 -11 -14 -22 0
-8 -17 -25 -43 -50 -1 -2 -5 -7 -11 -14 -16 -22 -24 -42 0
-50 -43 -25 -17 -8 -42 -24 -16 -7 -22 -14 -5 -11 -2 -1 0
-1 -2 -5 -7 -9 -11 -14 -16 -18 -22 -24 -26 -42 -44 -51 0
-9 -7 -5 -2 -1 -51 -44 -26 -18 -42 -24 -16 -22 -14 -11 0
-1 -18 -16 -14 -11 -9 -7 -5 -2 -51 -44 -26 -42 -24 -22 0
-11 -14 -16 -18 -1 -22 -24 -26 -2 -42 -44 -5 -51 -7 -9 0
-11 -2 -26 -24 -22 -1 -18 -16 -14 -9 -7 -5 -51 -44 -42 0
-22 -24 -26 -2 -11 -42 -44 -5 -14 -51 -7 -16 -9 -18 -1 0
-22 -14 -5 -44 -42 -11 -2 -26 -24 -1 -18 -16 -9 -7 -51 0
-42 -44 -5 -14 -22 -51 -7 -16 -24 -9 -18 -26 -1 -2 -11 0
-42 -24 -16 -7 -51 -22 -14 -5 -44 -11 -2 -26 -1 -18 -9 0
-51 -7 -16 -24 -42 -9 -18 -26 -44 -1 -2 -5 -11 -14 -22 0
-9 -18 -26 -44 -51 -1 -2 -5 -7 -11 -14 -16 -22 -24 -42 0
-51 -44 -26 -18 -9 -42 -24 -16 -7 -22 -14 -5 -11 -2 -1 0
-1 -2 -5 -7 -10 -11 -14 -16 -19 -22 -24 -27 -42 -45 -52 0
-10 -7 -5 -2 -1 -52 -45 -27 -19 -42 -24 -16 -22 -14 -11 0
-1 -19 -16 -14 -11 -10 -7 -5 -2 -52 -45 -27 -42 -24 -22 0
-11 -14 -16 -19 -1 -22 -24 -27 -2 -42 -45 -5 -52 -7 -10 0
-11 -2 -27 -24 -22 -1 -19 -16 -14 -10 -7 -5 -52 -45 -42 0
-22 -24 -27 -2 -11 -42 -45 -5 -14 -52 -7 -16 -10 -19 -1 0
-22 -14 -5 -45 -42 -11 -2 -27 -24 -1 -19 -16 -10 -7 -52 0
-42 -45 -5 -14 -22 -52 -7 -16 -24 -10 -19 -27 -1 -2 -11 0
-42 -24 -16 -7 -52 -22 -14 -5 -45 -11 -2 -27 -1 -19 -10 0
-52 -7 -16 -24 -42 -10 -19 -27 -45 -1 -2 -5 -11 -14 -22 0
-10 -19 -27 -45 -52 -1 -2 -5 -7 -11 -14 -16 -22 -24 -42 0
-52 -45 -27 -19 -10 -42 -24 -16 -7 -22 -14 -5 -11 -2 -1 0
-1 -2 -5 -8 -9 -11 -14 -17 -18 -22 -25 -26 -43 -44 -53 0
-9 -8 -5 -2 -1 -53 -44 -26 -18 -43 -25 -17 -22 -14 -11 0
-1 -18 -17 -14 -11 -9 -8 -5 -2 -53 -44 -26 -43 -25 -22 0
-11 -14 -17 -18 -1 -22 -25 -26 -2 -43 -44 -5 -53 -8 -9 0
-11 -2 -26 -25 -22 -1 -18 -17 -14 -9 -8 -5 -53 -44 -43 0
-22 -25 -26 -2 -11 -43 -44 -5 -14 -53 -8 -17 -9 -18 -1 0
-22 -14 -5 -44 -43 -11 -2 -26 -25 -1 -18 -17 -9 -8 -53 0
-43 -44 -5 -14 -22 -53 -8 -17 -25 -9 -18 -26 -1 -2 -11 0
-43 -25 -17 -8 -53 -22 -14 -5 -44 -11 -2 -26 -1 -18 -9 0
-53 -8 -17 -25 -43 -9 -18 -26 -44 -1 -2 -5 -11 -14 -22 0
-9 -18 -26 -44 -53 -1 -2 -5 -8 -11 -14 -17 -22 -25 -43 0
-53 -44 -26 -18 -9 -43 -25 -17 -8 -22 -14 -5 -11 -2 -1 0
-1 -2 -5 -8 -10 -11 -14 -17 -19 -22 -25 -27 -43 -45 -54 0
-10 -8 -5 -2 -1 -54 -45 -27 -19 -43 -25 -17 -22 -14 -11 0
-1 -19 -17 -14 -11 -10 -8 -5 -2 -54 -45 -27 -43 -25 -22 0
-11 -14 -17 -19 -1 -22 -25 -27 -2 -43 -45 -5 -54 -8 -10 0
-11 -2 -27 -25 -22 -1 -19 -17 -14 -10 -8 -5 -54 -45 -43 0
-22 -25 -27 -2 -11 -43 -45 -5 -14 -54 -8 -17 -10 -19 -1 0
-22 -14 -5 -45 -43 -11 -2 -27 -25 -1 -19 -17 -10 -8 -54 0
-43 -45 -5 -14 -22 -54 -8 -17 -25 -10 -19 -27 -1 -2 -11 0
-43 -25 -17 -8 -54 -22 -14 -5 -45 -11 -2 -27 -1 -19 -10 0
-54 -8 -17 -25 -43 -10 -19 -27 -45 -1 -2 -5 -11 -14 -22 0
-10 -19 -27 -45 -54 -1 -2 -5 -8 -11 -14 -17 -22 -25 -43 0
-54 -45 -27 -19 -10 -43 -25 -17 -8 -22 -14 -5 -11 -2 -1 0
-1 -2 -5 -9 -10 -11 -14 -18 -19 -22 -26 -27 -44 -45 -55 0
-10 -9 -5 -2 -1 -55 -45 -27 -19 -44 -26 -18 -22 -14 -11 0
-1 -19 -18 -14 -11 -10 -9 -5 -2 -55 -45 -27 -44 -26 -22 0
-11 -14 -18 -19 -1 -22 -26 -27 -2 -44 -45 -5 -55 -9 -10 0
-11 -2 -27 -26 -22 -1 -19 -18 -14 -10 -9 -5 -55 -45 -44 0
-22 -26 -27 -2 -11 -44 -45 -5 -14 -55 -9 -18 -10 -19 -1 0
-22 -14 -5 -45 -44 -11 -2 -27 -26 -1 -19 -18 -10 -9 -55 0
-44 -45 -5 -14 -22 -55 -9 -18 -26 -10 -19 -27 -1 -2 -11 0
-44 -26 -18 -9 -55 -22 -14 -5 -45 -11 -2 -27 -1 -19 -10 0
-55 -9 -18 -26 -44 -10 -19 -27 -45 -1 -2 -5 -11 -14 -22 0
-10 -19 -27 -45 -55 -1 -2 -5 -9 -11 -14 -18 -22 -26 -44 0
-55 -45 -27 -19 -10 -44 -26 -18 -9 -22 -14 -5 -11 -2 -1 0
-1 -2 -6 -7 -8 -11 -15 -16 -17 -23 -24 -25 -46 -47 -50 0
-8 -7 -6 -2 -1 -50 -47 -25 -17 -46 -24 -16 -23 -15 -11 0
-1 -17 -16 -15 -11 -8 -7 -6 -2 -50 -47 -25 -46 -24 -23 0
-11 -15 -16 -17 -1 -23 -24 -25 -2 -46 -47 -6 -50 -7 -8 0
-11 -2 -25 -24 -23 -1 -17 -16 -15 -8 -7 -6 -50 -47 -46 0
-23 -24 -25 -2 -11 -46 -47 -6 -15 -50 -7 -16 -8 -17 -1 0
-23 -15 -6 -47 -46 -11 -2 -25 -24 -1 -17 -16 -8 -7 -50 0
-46 -47 -6 -15 -23 -50 -7 -16 -24 -8 -17 -25 -1 -2 -11 0
-46 -24 -16 -7 -50 -23 -15 -6 -47 -11 -2 -25 -1 -17 -8 0
-50 -7 -16 -24 -46 -8 -17 -25 -47 -1 -2 -6 -11 -15 -23 0
-8 -17 -25 -47 -50 -1 -2 -6 -7 -11 -15 -16 -23 -24 -46 0
-50 -47 -25 -17 -8 -46 -24 -16 -7 -23 -15 -6 -11 -2 -1 0
-1 -2 -6 -7 -9 -11 -15 -16 -18 -23 -24 -26 -46 -48 -51 0
-9 -7 -6 -2 -1 -51 -48 -26 -18 -46 -24 -16 -23 -15 -11 0
-1 -18 -16 -15 -11 -9 -7 -6 -2 -51 -48 -26 -46 -24 -23 0
-11 -15 -16 -18 -1 -23 -24 -26 -2 -46 -48 -6 -51 -7 -9 0
-11 -2 -26 -24 -23 -1 -18 -16 -15 -9 -7 -6 -51 -48 -46 0
-23 -24 -26 -2 -11 -46 -48 -6 -15 -51 -7 -16 -9 -18 -1 0
-23 -15 -6 -48 -46 -11 -2 -26 -24 -1 -18 -16 -9 -7 -51 0
-46 -48 -6 -15 -23 -51 -7 -16 -24 -9 -18 -26 -1 -2 -11 0
-46 -24 -16 -7 -51 -23 -15 -6 -48 -11 -2 -26 -1 -18 -9 0
-51 -7 -16 -24 -46 -9 -18 -26 -48 -1 -2 -6 -11 -15 -23 0
-9 -18 -26 -48 -51 -1 -2 -6 -7 -11 -15 -16 -23 -24 -46 0
-51 -48 -26 -18 -9 -46 -24 -16 -7 -23 -15 -6 -11 -2 -1 0
-1 -2 -6 -7 -10 -11 -15 -16 -19 -23 -24 -27 -46 -49 -52 0
-10 -7 -6 -2 -1 -52 -49 -27 -19 -46 -24 -16 -23 -15 -11 0
-1 -19 -16 -15 -11 -10 -7 -6 -2 -52 -49 -27 -46 -24 -23 0
-11 -15 -16 -19 -1 -23 -24 -27 -2 -46 -49 -6 -52 -7 -10 0
-11 -2 -27 -24 -23 -1 -19 -16 -15 -10 -7 -6 -52 -49 -46 0
-23 -24 -27 -2 -11 -46 -49 -6 -15 -52 -7 -16 -10 -19 -1 0
-23 -15 -6 -49 -46 -11 -2 -27 -24 -1 -19 -16 -10 -7 -52 0
-46 -49 -6 -15 -23 -52 -7 -16 -24 -10 -19 -27 -1 -2 -11 0
-46 -24 -16 -7 -52 -23 -15 -6 -49 -11 -2 -27 -1 -19 -10 0
-52 -7 -16 -24 -46 -10 -19 -27 -49 -1 -2 -6 -11 -15 -23 0
-10 -19 -27 -49 -52 -1 -2 -6 -7 -11 -15 -16 -23 -24 -46 0
-52 -49 -27 -19 -10 -46 -24 -16 -7 -23 -15 -6 -11 -2 -1 0
-1 -2 -6 -8 -9 -11 -15 -17 -18 -23 -25 -26 -47 -48 -53 0
-9 -8 -6 -2 -1 -53 -48 -26 -18 -47 -25 -17 -23 -15 -11 0
-1 -18 -17 -15 -11 -9 -8 -6 -2 -53 -48 -26 -47 -25 -23 0
-11 -15 -17 -18 -1 -23 -25 -26 -2 -47 -48 -6 -53 -8 -9 0
-11 -2 -26 -25 -23 -1 -18 -17 -15 -9 -8 -6 -53 -48 -47 0
-23 -25 -26 -2 -11 -47 -48 -6 -15 -53 -8 -17 -9 -18 -1 0
-23 -15 -6 -48 -47 -11 -2 -26 -25 -1 -18 -17 -9 -8 -53 0
-47 -48 -6 -15 -23 -53 -8 -17 -25 -9 -18 -26 -1 -2 -11 0
-47 -25 -17 -8 -53 -23 -15 -6 -48 -11 -2 -26 -1 -18 -9 0
-53 -8 -17 -25 -47 -9 -18 -26 -48 -1 -2 -6 -11 -15 -23 0
-9 -18 -26 -48 -53 -1 -2 -6 -8 -11 -15 -17 -23 -25 -47 0
-53 -48 -26 -18 -9 -47 -25 -17 -8 -23 -15 -6 -11 -2 -1 0
-1 -2 -6 -8 -10 -11 -15 -17 -19 -23 -25 -27 -47 -49 -54 0
-10 -8 -6 -2 -1 -54 -49 -27 -19 -47 -25 -17 -23 -15 -11 0
-1 -19 -17 -15 -11 -10 -8 -6 -2 -54 -49 -27 -47 -25 -23 0
-11 -15 -17 -19 -1 -23 -25 -27 -2 -47 -49 -6 -54 -8 -10 0
-11 -2 -27 -25 -23 -1 -19 -17 -15 -10 -8 -6 -54 -49 -47 0
-23 -25 -27 -2 -11 -47 -49 -6 -15 -54 -8 -17 -10 -19 -1 0
-23 -15 -6 -49 -47 -11 -2 -27 -25 -1 -19 -17 -10 -8 -54 0
-47 -49 -6 -15 -23 -54 -8 -17 -25 -10 -19 -27 -1 -2 -11 0
-47 -25 -17 -8 -54 -23 -15 -6 -49 -11 -2 -27 -1 -19 -10 0
-54 -8 -17 -25 -47 -10 -19 -27 -49 -1 -2 -6 -11 -15 -23 0
-10 -19 -27 -49 -54 -1 -2 -6 -8 -11 -15 -17 -23 -25 -47 0
-54 -49 -27 -19 -10 -47 -25 -17 -8 -23 -15 -6 -11 -2 -1 0
-1 -2 -6 -9 -10 -11 -15 -18 -19 -23 -26 -27 -48 -49 -55 0
-10 -9 -6 -2 -1 -55 -49 -27 -19 -48 -26 -18 -23 -15 -11 0
-1 -19 -18 -15 -11 -10 -9 -6 -2 -55 -49 -27 -48 -26 -23 0
-11 -15 -18 -19 -1 -23 -26 -27 -2 -48 -49 -6 -55 -9 -10 0
-11 -2 -27 -26 -23 -1 -19 -18 -15 -10 -9 -6 -55 -49 -48 0
-23 -26 -27 -2 -11 -48 -49 -6 -15 -55 -9 -18 -10 -19 -1 0
-23 -15 -6 -49 -48 -11 -2 -27 -26 -1 -19 -18 -10 -9 -55 0
-48 -49 -6 -15 -23 -55 -9 -18 -26 -10 -19 -27 -1 -2 -11 0
-48 -26 -18 -9 -55 -23 -15 -6 -49 -11 -2 -27 -1 -19 -10 0
-55 -9 -18 -26 -48 -10 -19 -27 -49 -1 -2 -6 -11 -15 -23 0
-10 -19 -27 -49 -55 -1 -2 -6 -9 -11 -15 -18 -23 -26 -48 0
-55 -49 -27 -19 -10 -48 -26 -18 -9 -23 -15 -6 -11 -2 -1 0
-1 -2 -7 -8 -9 -11 -16 -17 -18 -24 -25 -26 -50 -51 -53 0
-9 -8 -7 -2 -1 -53 -51 -26 -18 -50 -25 -17 -24 -16 -11 0
-1 -18 -17 -16 -11 -9 -8 -7 -2 -53 -51 -26 -50 -25 -24 0
-11 -16 -17 -18 -1 -24 -25 -26 -2 -50 -51 -7 -53 -8 -9 0
-11 -2 -26 -25 -24 -1 -18 -17 -16 -9 -8 -7 -53 -51 -50 0
-24 -25 -26 -2 -11 -50 -51 -7 -16 -53 -8 -17 -9 -18 -1 0
-24 -16 -7 -51 -50 -11 -2 -26 -25 -1 -18 -17 -9 -8 -53 0
-50 -51 -7 -16 -24 -53 -8 -17 -25 -9 -18 -26 -1 -2 -11 0
-50 -25 -17 -8 -53 -24 -16 -7 -51 -11 -2 -26 -1 -18 -9 0
-53 -8 -17 -25 -50 -9 -18 -26 -51 -1 -2 -7 -11 -16 -24 0
-9 -18 -26 -51 -53 -1 -2 -7 -8 -11 -16 -17 -24 -25 -50 0
-53 -51 -26 -18 -9 -50 -25 -17 -8 -24 -16 -7 -11 -2 -1 0
-1 -2 -7 -8 -10 -11 -16 -17 -19 -24 -25 -27 -50 -52 -54 0
-10 -8 -7 -2 -1 -54 -52 -27 -19 -50 -25 -17 -24 -16 -11 0
-1 -19 -17 -16 -11 -10 -8 -7 -2 -54 -52 -27 -50 -25 -24 0
-11 -16 -17 -19 -1 -24 -25 -27 -2 -50 -52 -7 -54 -8 -10 0
-11 -2 -27 -25 -24 -1 -19 -17 -16 -10 -8 -7 -54 -52 -50 0
-24 -25 -27 -2 -11 -50 -52 -7 -16 -54 -8 -17 -10 -19 -1 0
-24 -16 -7 -52 -50 -11 -2 -27 -25 -1 -19 -17 -10 -8 -54 0
-50 -52 -7 -16 -24 -54 -8 -17 -25 -10 -19 -27 -1 -2 -11 0
-50 -25 -17 -8 -54 -24 -16 -7 -52 -11 -2 -27 -1 -19 -10 0
-54 -8 -17 -25 -50 -10 -19 -27 -52 -1 -2 -7 -11 -16 -24 0
-10 -19 -27 -52 -54 -1 -2 -7 -8 -11 -16 -17 -24 -25 -50 0
-54 -52 -27 -19 -10 -50 -25 -17 -8 -24 -16 -7 -11 -2 -1 0
-1 -2 -7 -9 -10 -11 -16 -18 -19 -24 -26 -27 -51 -52 -55 0
-10 -9 -7 -2 -1 -55 -52 -27 -19 -51 -26 -18 -24 -16 -11 0
-1 -19 -18 -16 -11 -10 -9 -7 -2 -55 -52 -27 -51 -26 -24 0
-11 -16 -18 -19 -1 -24 -26 -27 -2 -51 -52 -7 -55 -9 -10 0
-11 -2 -27 -26 -24 -1 -19 -18 -16 -10 -9 -7 -55 -52 -51 0
-24 -26 -27 -2 -11 -51 -52 -7 -16 -55 -9 -18 -10 -19 -1 0
-24 -16 -7 -52 -51 -11 -2 -27 -26 -1 -19 -18 -10 -9 -55 0
-51 -52 -7 -16 -24 -55 -9 -18 -26 -10 -19 -27 -1 -2 -11 0
-51 -26 -18 -9 -55 -24 -16 -7 -52 -11 -2 -27 -1 -19 -10 0
-55 -9 -18 -26 -51 -10 -19 -27 -52 -1 -2 -7 -11 -16 -24 0
-10 -19 -27 -52 -55 -1 -2 -7 -9 -11 -16 -18 -24 -26 -51 0
-55 -52 -27 -19 -10 -51 -26 -18 -9 -24 -16 -7 -11 -2 -1 0
-1 -2 -8 -9 -10 -11 -17 -18 -19 -25 -26 -27 -53 -54 -55 0
-10 -9 -8 -2 -1 -55 -54 -27 -19 -53 -26 -18 -25 -17 -11 0
-1 -19 -18 -17 -11 -10 -9 -8 -2 -55 -54 -27 -53 -26 -25 0
-11 -17 -18 -19 -1 -25 -26 -27 -2 -53 -54 -8 -55 -9 -10 0
-11 -2 -27 -26 -25 -1 -19 -18 -17 -10 -9 -8 -55 -54 -53 0
-25 -26 -27 -2 -11 -53 -54 -8 -17 -55 -9 -18 -10 -19 -1 0
-25 -17 -8 -54 -53 -11 -2 -27 -26 -1 -19 -18 -10 -9 -55 0
-53 -54 -8 -17 -25 -55 -9 -18 -26 -10 -19 -27 -1 -2 -11 0
-53 -26 -18 -9 -55 -25 -17 -8 -54 -11 -2 -27 -1 -19 -10 0
-55 -9 -18 -26 -53 -10 -19 -27 -54 -1 -2 -8 -11 -17 -25 0
-10 -19 -27 -54 -55 -1 -2 -8 -9 -11 -17 -18 -25 -26 -53 0
-55 -54 -27 -19 -10 -53 -26 -18 -9 -25 -17 -8 -11 -2 -1 0
-1 -3 -4 -5 -6 -12 -13 -14 -15 -28 -29 -30 -35 -36 -41 0
-6 -5 -4 -3 -1 -41 -36 -30 -15 -35 -29 -14 -28 -13 -12 0
-1 -15 -14 -13 -12 -6 -5 -4 -3 -41 -36 -30 -35 -29 -28 0
-12 -13 -14 -15 -1 -28 -29 -30 -3 -35 -36 -4 -41 -5 -6 0
-12 -3 -30 -29 -28 -1 -15 -14 -13 -6 -5 -4 -41 -36 -35 0
-28 -29 -30 -3 -12 -35 -36 -4 -13 -41 -5 -14 -6 -15 -1 0
-28 -13 -4 -36 -35 -12 -3 -30 -29 -1 -15 -14 -6 -5 -41 0
-35 -36 -4 -13 -28 -41 -5 -14 -29 -6 -15 -30 -1 -3 -12 0
-35 -29 -14 -5 -41 -28 -13 -4 -36 -12 -3 -30 -1 -15 -6 0
-41 -5 -14 -29 -35 -6 -15 -30 -36 -1 -3 -4 -12 -13 -28 0
-6 -15 -30 -36 -41 -1 -3 -4 -5 -12 -13 -14 -28 -29 -35 0
-41 -36 -30 -15 -6 -35 -29 -14 -5 -28 -13 -4 -12 -3 -1 0
-1 -3 -4 -5 -7 -12 -13 -14 -16 -28 -29 -31 -35 -37 -42 0
-7 -5 -4 -3 -1 -42 -37 -31 -16 -35 -29 -14 -28 -13 -12 0
-1 -16 -14 -13 -12 -7 -5 -4 -3 -42 -37 -31 -35 -29 -28 0
-12 -13 -14 -16 -1 -28 -29 -31 -3 -35 -37 -4 -42 -5 -7 0
-12 -3 -31 -29 -28 -1 -16 -14 -13 -7 -5 -4 -42 -37 -35 0
-28 -29 -31 -3 -12 -35 -37 -4 -13 -42 -5 -14 -7 -16 -1 0
-28 -13 -4 -37 -35 -12 -3 -31 -29 -1 -16 -14 -7 -5 -42 0
-35 -37 -4 -13 -28 -42 -5 -14 -29 -7 -16 -31 -1 -3 -12 0
-35 -29 -14 -5 -42 -28 -13 -4 -37 -12 -3 -31 -1 -16 -7 0
-42 -5 -14 -29 -35 -7 -16 -31 -37 -1 -3 -4 -12 -13 -28 0
-7 -16 -31 -37 -42 -1 -3 -4 -5 -12 -13 -14 -28 -29 -35 0
-42 -37 -31 -16 -7 -35 -29 -14 -5 -28 -13 -4 -12 -3 -1 0
-1 -3 -4 -5 -8 -12 -13 -14 -17 -28 -29 -32 -35 -38 -43 0
-8 -5 -4 -3 -1 -43 -38 -32 -17 -35 -29 -14 -28 -13 -12 0
-1 -17 -14 -13 -12 -8 -5 -4 -3 -43 -38 -32 -35 -29 -28 0
-12 -13 -14 -17 -1 -28 -29 -32 -3 -35 -38 -4 -43 -5 -8 0
-12 -3 -32 -29 -28 -1 -17 -14 -13 -8 -5 -4 -43 -38 -35 0
-28 -29 -32 -3 -12 -35 -38 -4 -13 -43 -5 -14 -8 -17 -1 0
-28 -13 -4 -38 -35 -12 -3 -32 -29 -1 -17 -14 -8 -5 -43 0
-35 -38 -4 -13 -28 -43 -5 -14 -29 -8 -17 -32 -1 -3 -12 0
-35 -29 -14 -5 -43 -28 -13 -4 -38 -12 -3 -32 -1 -17 -8 0
-43 -5 -14 -29 -35 -8 -17 -32 -38 -1 -3 -4 -12 -13 -28 0
-8 -17 -32 -38 -43 -1 -3 -4 -5 -12 -13 -14 -28 -29 -35 0
-43 -38 -32 -17 -8 -35 -29 -14 -5 -28 -13 -4 -12 -3 -1 0
-1 -3 -4 -5 -9 -12 -13 -14 -18 -28 -29 -33 -35 -39 -44 0
-9 -5 -4 -3 -1 -44 -39 -33 -18 -35 -29 -14 -28 -13 -12 0
-1 -18 -14 -13 -12 -9 -5 -4 -3 -44 -39 -33 -35 -29 -28 0
-12 -13 -14 -18 -1 -28 -29 -33 -3 -35 -39 -4 -44 -5 -9 0
-12 -3 -33 -29 -28 -1 -18 -14 -13 -9 -5 -4 -44 -39 -35 0
-28 -29 -33 -3 -12 -35 -39 -4 -13 -44 -5 -14 -9 -18 -1 0
-28 -13 -4 -39 -35 -12 -3 -33 -29 -1 -18 -14 -9 -5 -44 0
-35 -39 -4 -13 -28 -44 -5 -14 -29 -9 -18 -33 -1 -3 -12 0
-35 -29 -14 -5 -44 -28 -13 -4 -39 -12 -3 -33 -1 -18 -9 0
-44 -5 -14 -29 -35 -9 -18 -33 -39 -1 -3 -4 -12 -13 -28 0
-9 -18 -33 -39 -44 -1 -3 -4 -5 -12 -13 -14 -28 -29 -35 0
-44 -39 -33 -18 -9 -35 -29 -14 -5 -28 -13 -4 -12 -3 -1 0
-1 -3 -4 -5 -10 -12 -13 -14 -19 -28 -29 -34 -35 -40 -45 0
-10 -5 -4 -3 -1 -45 -40 -34 -19 -35 -29 -14 -28 -13 -12 0
-1 -19 -14 -13 -12 -10 -5 -4 -3 -45 -40 -34 -35 -29 -28 0
-12 -13 -14 -19 -1 -28 -29 -34 -3 -35 -40 -4 -45 -5 -10 0
-12 -3 -34 -29 -28 -1 -19 -14 -13 -10 -5 -4 -45 -40 -35 0
-28 -29 -34 -3 -12 -35 -40 -4 -13 -45 -5 -14 -10 -19 -1 0
-28 -13 -4 -40 -35 -12 -3 -34 -29 -1 -19 -14 -10 -5 -45 0
-35 -40 -4 -13 -28 -45 -5 -14 -29 -10 -19 -34 -1 -3 -12 0
-35 -29 -14 -5 -45 -28 -13 -4 -40 -12 -3 -34 -1 -19 -10 0
-45 -5 -14 -29 -35 -10 -19 -34 -40 -1 -3 -4 -12 -13 -28 0
-10 -19 -34 -40 -45 -1 -3 -4 -5 -12 -13 -14 -28 -29 -35 0
-45 -40 -34 -19 -10 -35 -29 -14 -5 -28 -13 -4 -12 -3 -1 0
-1 -3 -4 -6 -7 -12 -13 -15 -16 -28 -30 -31 -36 -37 -46 0
-7 -6 -4 -3 -1 -46 -37 -31 -16 -36 -30 -15 -28 -13 -12 0
-1 -16 -15 -13 -12 -7 -6 -4 -3 -46 -37 -31 -36 -30 -28 0
-12 -13 -15 -16 -1 -28 -30 -31 -3 -36 -37 -4 -46 -6 -7 0
-12 -3 -31 -30 -28 -1 -16 -15 -13 -7 -6 -4 -46 -37 -36 0
-28 -30 -31 -3 -12 -36 -37 -4 -13 -46 -6 -15 -7 -16 -1 0
-28 -13 -4 -37 -36 -12 -3 -31 -30 -1 -16 -15 -7 -6 -46 0
-36 -37 -4 -13 -28 -46 -6 -15 -30 -7 -16 -31 -1 -3 -12 0
-36 -30 -15 -6 -46 -28 -13 -4 -37 -12 -3 -31 -1 -16 -7 0
-46 -6 -15 -30 -36 -7 -16 -31 -37 -1 -3 -4 -12 -13 -28 0
-7 -16 -31 -37 -46 -1 -3 -4 -6 -12 -13 -15 -28 -30 -36 0
-46 -37 -31 -16 -7 -36 -30 -15 -6 -28 -13 -4 -12 -3 -1 0
-1 -3 -4 -6 -8 -12 -13 -15 -17 -28 -30 -32 -36 -38 -47 0
-8 -6 -4 -3 -1 -47 -38 -32 -17 -36 -30 -15 -28 -13 -12 0
-1 -17 -15 -13 -12 -8 -6 -4 -3 -47 -38 -32 -36 -30 -28 0
-12 -13 -15 -17 -1 -28 -30 -32 -3 -36 -38 -4 -47 -6 -8 0
-12 -3 -32 -30 -28 -1 -17 -15 -13 -8 -6 -4 -47 -38 -36 0
-28 -30 -32 -3 -12 -36 -38 -4 -13 -47 -6 -15 -8 -17 -1 0
-28 -13 -4 -38 -36 -12 -3 -32 -30 -1 -17 -15 -8 -6 -47 0
-36 -38 -4 -13 -28 -47 -6 -15 -30 -8 -17 -32 -1 -3 -12 0
-36 -30 -15 -6 -47 -28 -13 -4 -38 -12 -3 -32 -1 -17 -8 0
-47 -6 -15 -30 -36 -8 -17 -32 -38 -1 -3 -4 -12 -13 -28 0
-8 -17 -32 -38 -47 -1 -3 -4 -6 -12 -13 -15 -28 -30 -36 0
-47 -38 -32 -17 -8 -36 -30 -15 -6 -28 -13 -4 -12 -3 -1 0
-1 -3 -4 -6 -9 -12 -13 -15 -18 -28 -30 -33 -36 -39 -48 0
-9 -6 -4 -3 -1 -48 -39 -33 -18 -36 -30 -15 -28 -13 -12 0
-1 -18 -15 -13 -12 -9 -6 -4 -3 -48 -39 -33 -36 -30 -28 0
-12 -13 -15 -18 -1 -28 -30 -33 -3 -36 -39 -4 -48 -6 -9 0
-12 -3 -33 -30 -28 -1 -18 -15 -13 -9 -6 -4 -48 -39 -36 0
-28 -30 -33 -3 -12 -36 -39 -4 -13 -48 -6 -15 -9 -18 -1 0
-28 -13 -4 -39 -36 -12 -3 -33 -30 -1 -18 -15 -9 -6 -48 0
-36 -39 -4 -13 -28 -48 -6 -15 -30 -9 -18 -33 -1 -3 -12 0
-36 -30 -15 -6 -48 -28 -13 -4 -39 -12 -3 -33 -1 -18 -9 0
-48 -6 -15 -30 -36 -9 -18 -33 -39 -1 -3 -4 -12 -13 -28 0
-9 -18 -33 -39 -48 -1 -3 -4 -6 -12 -13 -15 -28 -30 -36 0
-48 -39 -33 -18 -9 -36 -30 -15 -6 -28 -13 -4 -12 -3 -1 0
-1 -3 -4 -6 -10 -12 -13 -15 -19 -28 -30 -34 -36 -40 -49 0
-10 -6 -4 -3 -1 -49 -40 -34 -19 -36 -30 -15 -28 -13 -12 0
-1 -19 -15 -13 -12 -10 -6 -4 -3 -49 -40 -34 -36 -30 -28 0
-12 -13 -15 -19 -1 -28 -30 -34 -3 -36 -40 -4 -49 -6 -10 0
-12 -3 -34 -30 -28 -1 -19 -15 -13 -10 -6 -4 -49 -40 -36 0
-28 -30 -34 -3 -12 -36 -40 -4 -13 -49 -6 -15 -10 -19 -1 0
-28 -13 -4 -40 -36 -12 -3 -34 -30 -1 -19 -15 -10 -6 -49 0
-36 -40 -4 -13 -28 -49 -6 -15 -30 -10 -19 -34 -1 -3 -12 0
-36 -30 -15 -6 -49 -28 -13 -4 -40 -12 -3 -34 -1 -19 -10 0
-49 -6 -15 -30 -36 -10 -19 -34 -40 -1 -3 -4 -12 -13 -28 0
-10 -19 -34 -40 -49 -1 -3 -4 -6 -12 -13 -15 -28 -30 -36 0
-49 -40 -34 -19 -10 -36 -30 -15 -6 -28 -13 -4 -12 -3 -1 0
-1 -3 -4 -7 -8 -12 -13 -16 -17 -28 -31 -32 -37 -38 -50 0
-8 -7 -4 -3 -1 -50 -38 -32 -17 -37 -31 -16 -28 -13 -12 0
-1 -17 -16 -13 -12 -8 -7 -4 -3 -50 -38 -32 -37 -31 -28 0
-12 -13 -16 -17 -1 -28 -31 -32 -3 -37 -38 -4 -50 -7 -8 0
-12 -3 -32 -31 -28 -1 -17 -16 -13 -8 -7 -4 -50 -38 -37 0
-28 -31 -32 -3 -12 -37 -38 -4 -13 -50 -7 -16 -8 -17 -1 0
-28 -13 -4 -38 -37 -12 -3 -32 -31 -1 -17 -16 -8 -7 -50 0
-37 -38 -4 -13 -28 -50 -7 -16 -31 -8 -17 -32 -1 -3 -12 0
-37 -31 -16 -7 -50 -28 -13 -4 -38 -12 -3 -32 -1 -17 -8 0
-50 -7 -16 -31 -37 -8 -17 -32 -38 -1 -3 -4 -12 -13 -28 0
-8 -17 -32 -38 -50 -1 -3 -4 -7 -12 -13 -16 -28 -31 -37 0
-50 -38 -32 -17 -8 -37 -31 -16 -7 -28 -13 -4 -12 -3 -1 0
-1 -3 -4 -7 -9 -12 -13 -16 -18 -28 -31 -33 -37 -39 -51 0
-9 -7 -4 -3 -1 -51 -39 -33 -18 -37 -31 -16 -28 -13 -12 0
-1 -18 -16 -13 -12 -9 -7 -4 -3 -51 -39 -33 -37 -31 -28 0
-12 -13 -16 -18 -1 -28 -31 -33 -3 -37 -39 -4 -51 -7 -9 0
-12 -3 -33 -31 -28 -1 -18 -16 -13 -9 -7 -4 -51 -39 -37 0
-28 -31 -33 -3 -12 -37 -39 -4 -13 -51 -7 -16 -9 -18 -1 0
-28 -13 -4 -39 -37 -12 -3 -33 -31 -1 -18 -16 -9 -7 -51 0
-37 -39 -4 -13 -28 -51 -7 -16 -31 -9 -18 -33 -1 -3 -12 0
-37 -31 -16 -7 -51 -28 -13 -4 -39 -12 -3 -33 -1 -18 -9 0
-51 -7 -16 -31 -37 -9 -18 -33 -39 -1 -3 -4 -12 -13 -28 0
-9 -18 -33 -39 -51 -1 -3 -4 -7 -12 -13 -16 -28 -31 -37 0
-51 -39 -33 -18 -9 -37 -31 -16 -7 -28 -13 -4 -12 -3 -1 0
-1 -3 -4 -7 -10 -12 -13 -16 -19 -28 -31 -34 -37 -40 -52 0
-10 -7 -4 -3 -1 -52 -40 -34 -19 -37 -31 -16 -28 -13 -12 0
-1 -19 -16 -13 -12 -10 -7 -4 -3 -52 -40 -34 -37 -31 -28 0
-12 -13 -16 -19 -1 -28 -31 -34 -3 -37 -40 -4 -52 -7 -10 0
-12 -3 -34 -31 -28 -1 -19 -16 -13 -10 -7 -4 -52 -40 -37 0
-28 -31 -34 -3 -12 -37 -40 -4 -13 -52 -7 -16 -10 -19 -1 0
-28 -13 -4 -40 -37 -12 -3 -34 -31 -1 -19 -16 -10 -7 -52 0
-37 -40 -4 -13 -28 -52 -7 -16 -31 -10 -19 -34 -1 -3 -12 0
-37 -31 -16 -7 -52 -28 -13 -4 -40 -12 -3 -34 -1 -19 -10 0
-52 -7 -16 -31 -37 -10 -19 -34 -40 -1 -3 -4 -12 -13 -28 0
-10 -19 -34 -40 -52 -1 -3 -4 -7 -12 -13 -16 -28 -31 -37 0
-52 -40 -34 -19 -10 -37 -31 -16 -7 -28 -13 -4 -12 -3 -1 0
-1 -3 -4 -8 -9 -12 -13 -17 -18 -28 -32 -33 -38 -39 -53 0
-9 -8 -4 -3 -1 -53 -39 -33 -18 -38 -32 -17 -28 -13 -12 0
-1 -18 -17 -13 -12 -9 -8 -4 -3 -53 -39 -33 -38 -32 -28 0
-12 -13 -17 -18 -1 -28 -32 -33 -3 -38 -39 -4 -53 -8 -9 0
-12 -3 -33 -32 -28 -1 -18 -17 -13 -9 -8 -4 -53 -39 -38 0
-28 -32 -33 -3 -12 -38 -39 -4 -13 -53 -8 -17 -9 -18 -1 0
-28 -13 -4 -39 -38 -12 -3 -33 -32 -1 -18 -17 -9 -8 -53 0
-38 -39 -4 -13 -28 -53 -8 -17 -32 -9 -18 -33 -1 -3 -12 0
-38 -32 -17 -8 -53 -28 -13 -4 -39 -12 -3 -33 -1 -18 -9 0
-53 -8 -17 -32 -38 -9 -18 -33 -39 -1 -3 -4 -12 -13 -28 0
-9 -18 -33 -39 -53 -1 -3 -4 -8 -12 -13 -17 -28 -32 -38 0
-53 -39 -33 -18 -9 -38 -32 -17 -8 -28 -13 -4 -12 -3 -1 0
-1 -3 -4 -8 -10 -12 -13 -17 -19 -28 -32 -34 -38 -40 -54 0
-10 -8 -4 -3 -1 -54 -40 -34 -19 -38 -32 -17 -28 -13 -12 0
-1 -19 -17 -13 -12 -10 -8 -4 -3 -54 -40 -34 -38 -32 -28 0
-12 -13 -17 -19 -1 -28 -32 -34 -3 -38 -40 -4 -54 -8 -10 0
-12 -3 -34 -32 -28 -1 -19 -17 -13 -10 -8 -4 -54 -40 -38 0
-28 -32 -34 -3 -12 -38 -40 -4 -13 -54 -8 -17 -10 -19 -1 0
-28 -13 -4 -40 -38 -12 -3 -34 -32 -1 -19 -17 -10 -8 -54 0
-38 -40 -4 -13 -28 -54 -8 -17 -32 -10 -19 -34 -1 -3 -12 0
-38 -32 -17 -8 -54 -28 -13 -4 -40 -12 -3 -34 -1 -19 -10 0
-54 -8 -17 -32 -38 -10 -19 -34 -40 -1 -3 -4 -12 -13 -28 0
-10 -19 -34 -40 -54 -1 -3 -4 -8 -12 -13 -17 -28 -32 -38 0
-54 -40 -34 -19 -10 -38 -32 -17 -8 -28 -13 -4 -12 -3 -1 0
-1 -3 -4 -9 -10 -12 -13 -18 -19 -28 -33 -34 -39 -40 -55 0
-10 -9 -4 -3 -1 -55 -40 -34 -19 -39 -33 -18 -28 -13 -12 0
-1 -19 -18 -13 -12 -10 -9 -4 -3 -55 -40 -34 -39 -33 -28 0
-12 -13 -18 -19 -1 -28 -33 -34 -3 -39 -40 -4 -55 -9 -10 0
-12 -3 -34 -33 -28 -1 -19 -18 -13 -10 -9 -4 -55 -40 -39 0
-28 -33 -34 -3 -12 -39 -40 -4 -13 -55 -9 -18 -10 -19 -1 0
-28 -13 -4 -40 -39 -12 -3 -34 -33 -1 -19 -18 -10 -9 -55 0
-39 -40 -4 -13 -28 -55 -9 -18 -33 -10 -19 -34 -1 -3 -12 0
-39 -33 -18 -9 -55 -28 -13 -4 -40 -12 -3 -34 -1 -19 -10 0
-55 -9 -18 -33 -39 -10 -19 -34 -40 -1 -3 -4 -12 -13 -28 0
-10 -19 -34 -40 -55 -1 -3 -4 -9 -12 -13 -18 -28 -33 -39 0
-55 -40 -34 -19 -10 -39 -33 -18 -9 -28 -13 -4 -12 -3 -1 0
-1 -3 -5 -6 -7 -12 -14 -15 -16 -29 -30 -31 -41 -42 -46 0
-7 -6 -5 -3 -1 -46 -42 -31 -16 -41 -30 -15 -29 -14 -12 0
-1 -16 -15 -14 -12 -7 -6 -5 -3 -46 -42 -31 -41 -30 -29 0
-12 -14 -15 -16 -1 -29 -30 -31 -3 -41 -42 -5 -46 -6 -7 0
-12 -3 -31 -30 -29 -1 -16 -15 -14 -7 -6 -5 -46 -42 -41 0
-29 -30 -31 -3 -12 -41 -42 -5 -14 -46 -6 -15 -7 -16 -1 0
-29 -14 -5 -42 -41 -12 -3 -31 -30 -1 -16 -15 -7 -6 -46 0
-41 -42 -5 -14 -29 -46 -6 -15 -30 -7 -16 -31 -1 -3 -12 0
-41 -30 -15 -6 -46 -29 -14 -5 -42 -12 -3 -31 -1 -16 -7 0
-46 -6 -15 -30 -41 -7 -16 -31 -42 -1 -3 -5 -12 -14 -29 0
-7 -16 -31 -42 -46 -1 -3 -5 -6 -12 -14 -15 -29 -30 -41 0
-46 -42 -31 -16 -7 -41 -30 -15 -6 -29 -14 -5 -12 -3 -1 0
-1 -3 -5 -6 -8 -12 -14 -15 -17 -29 -30 -32 -41 -43 -47 0
-8 -6 -5 -3 -1 -47 -43 -32 -17 -41 -30 -15 -29 -14 -12 0
-1 -17 -15 -14 -12 -8 -6 -5 -3 -47 -43 -32 -41 -30 -29 0
-12 -14 -15 -17 -1 -29 -30 -32 -3 -41 -43 -5 -47 -6 -8 0
-12 -3 -32 -30 -29 -1 -17 -15 -14 -8 -6 -5 -47 -43 -41 0
-29 -30 -32 -3 -12 -41 -43 -5 -14 -47 -6 -15 -8 -17 -1 0
-29 -14 -5 -43 -41 -12 -3 -32 -30 -1 -17 -15 -8 -6 -47 0
-41 -43 -5 -14 -29 -47 -6 -15 -30 -8 -17 -32 -1 -3 -12 0
-41 -30 -15 -6 -47 -29 -14 -5 -43 -12 -3 -32 -1 -17 -8 0
-47 -6 -15 -30 -41 -8 -17 -32 -43 -1 -3 -5 -12 -14 -29 0
-8 -17 -32 -43 -47 -1 -3 -5 -6 -12 -14 -15 -29 -30 -41 0
-47 -43 -32 -17 -8 -41 -30 -15 -6 -29 -14 -5 -12 -3 -1 0
-1 -3 -5 -6 -9 -12 -14 -15 -18 -29 -30 -33 -41 -44 -48 0
-9 -6 -5 -3 -1 -48 -44 -33 -18 -41 -30 -15 -29 -14 -12 0
-1 -18 -15 -14 -12 -9 -6 -5 -3 -48 -44 -33 -41 -30 -29 0
-12 -14 -15 -18 -1 -29 -30 -33 -3 -41 -44 -5 -48 -6 -9 0
-12 -3 -33 -30 -29 -1 -18 -15 -14 -9 -6 -5 -48 -44 -41 0
-29 -30 -33 -3 -12 -41 -44 -5 -14 -48 -6 -15 -9 -18 -1 0
-29 -14 -5 -44 -41 -12 -3 -33 -30 -1 -18 -15 -9 -6 -48 0
-41 -44 -5 -14 -29 -48 -6 -15 -30 -9 -18 -33 -1 -3 -12 0
-41 -30 -15 -6 -48 -29 -14 -5 -44 -12 -3 -33 -1 -18 -9 0
-48 -6 -15 -30 -41 -9 -18 -33 -44 -1 -3 -5 -12 -14 -29 0
-9 -18 -33 -44 -48 -1 -3 -5 -6 -12 -14 -15 -29 -30 -41 0
-48 -44 -33 -18 -9 -41 -30 -15 -6 -29 -14 -5 -12 -3 -1 0
-1 -3 -5 -6 -10 -12 -14 -15 -19 -29 -30 -34 -41 -45 -49 0
-10 -6 -5 -3 -1 -49 -45 -34 -19 -41 -30 -15 -29 -14 -12 0
-1 -19 -15 -14 -12 -10 -6 -5 -3 -49 -45 -34 -41 -30 -29 0
-12 -14 -15 -19 -1 -29 -30 -34 -3 -41 -45 -5 -49 -6 -10 0
-12 -3 -34 -30 -29 -1 -19 -15 -14 -10 -6 -5 -49 -45 -41 0
-29 -30 -34 -3 -12 -41 -45 -5 -14 -49 -6 -15 -10 -19 -1 0
-29 -14 -5 -45 -41 -12 -3 -34 -30 -1 -19 -15 -10 -6 -49 0
-41 -45 -5 -14 -29 -49 -6 -15 -30 -10 -19 -34 -1 -3 -12 0
-41 -30 -15 -6 -49 -29 -14 -5 -45 -12 -3 -34 -1 -19 -10 0
-49 -6 -15 -30 -41 -10 -19 -34 -45 -1 -3 -5 -12 -14 -29 0
-10 -19 -34 -45 -49 -1 -3 -5 -6 -12 -14 -15 -29 -30 -41 0
-49 -45 -34 -19 -10 -41 -30 -15 -6 -29 -14 -5 -12 -3 -1 0
-1 -3 -5 -7 -8 -12 -14 -16 -17 -29 -31 -32 -42 -43 -50 0
-8 -7 -5 -3 -1 -50 -43 -32 -17 -42 -31 -16 -29 -14 -12 0
-1 -17 -16 -14 -12 -8 -7 -5 -3 -50 -43 -32 -42 -31 -29 0
-12 -14 -16 -17 -1 -29 -31 -32 -3 -42 -43 -5 -50 -7 -8 0
-12 -3 -32 -31 -29 -1 -17 -16 -14 -8 -7 -5 -50 -43 -42 0
-29 -31 -32 -3 -12 -42 -43 -5 -14 -50 -7 -16 -8 -17 -1 0
-29 -14 -5 -43 -42 -12 -3 -32 -31 -1 -17 -16 -8 -7 -50 0
-42 -43 -5 -14 -29 -50 -7 -16 -31 -8 -17 -32 -1 -3 -12 0
-42 -31 -16 -7 -50 -29 -14 -5 -43 -12 -3 -32 -1 -17 -8 0
-50 -7 -16 -31 -42 -8 -17 -32 -43 -1 -3 -5 -12 -14 -29 0
-8 -17 -32 -43 -50 -1 -3 -5 -7 -12 -14 -16 -29 -31 -42 0
-50 -43 -32 -17 -8 -42 -31 -16 -7 -29 -14 -5 -12 -3 -1 0
-1 -3 -5 -7 -9 -12 -14 -16 -18 -29 -31 -33 -42 -44 -51 0
-9 -7 -5 -3 -1 -51 -44 -33 -18 -42 -31 -16 -29 -14 -12 0
-1 -18 -16 -14 -12 -9 -7 -5 -3 -51 -44 -33 -42 -31 -29 0
-12 -14 -16 -18 -1 -29 -31 -33 -3 -42 -44 -5 -51 -7 -9 0
-12 -3 -33 -31 -29 -1 -18 -16 -14 -9 -7 -5 -51 -44 -42 0
-29 -31 -33 -3 -12 -42 -44 -5 -14 -51 -7 -16 -9 -18 -1 0
-29 -14 -5 -44 -42 -12 -3 -33 -31 -1 -18 -16 -9 -7 -51 0
-42 -44 -5 -14 -29 -51 -7 -16 -31 -9 -18 -33 -1 -3 -12 0
-42 -31 -16 -7 -51 -29 -14 -5 -44 -12 -3 -33 -1 -18 -9 0
-51 -7 -16 -31 -42 -9 -18 -33 -44 -1 -3 -5 -12 -14 -29 0
-9 -18 -33 -44 -51 -1 -3 -5 -7 -12 -14 -16 -29 -31 -42 0
-51 -44 -33 -18 -9 -42 -31 -16 -7 -29 -14 -5 -12 -3 -1 0
-1 -3 -5 -7 -10 -12 -14 -16 -19 -29 -31 -34 -42 -45 -52 0
-10 -7 -5 -3 -1 -52 -45 -34 -19 -42 -31 -16 -29 -14 -12 0
-1 -19 -16 -14 -12 -10 -7 -5 -3 -52 -45 -34 -42 -31 -29 0
-12 -14 -16 -19 -1 -29 -31 -34 -3 -42 -45 -5 -52 -7 -10 0
-12 -3 -34 -31 -29 -1 -19 -16 -14 -10 -7 -5 -52 -45 -42 0
-29 -31 -34 -3 -12 -42 -45 -5 -14 -52 -7 -16 -10 -19 -1 0
-29 -14 -5 -45 -42 -12 -3 -34 -31 -1 -19 -16 -10 -7 -52 0
-42 -45 -5 -14 -29 -52 -7 -16 -31 -10 -19 -34 -1 -3 -12 0
-42 -31 -16 -7 -52 -29 -14 -5 -45 -12 -3 -34 -1 -19 -10 0
-52 -7 -16 -31 -42 -10 -19 -34 -45 -1 -3 -5 -12 -14 -29 0
-10 -19 -34 -45 -52 -1 -3 -5 -7 -12 -14 -16 -29 -31 -42 0
-52 -45 -34 -19 -10 -42 -31 -16 -7 -29 -14 -5 -12 -3 -1 0
-1 -3 -5 -8 -9 -12 -14 -17 -18 -29 -32 -33 -43 -44 -53 0
-9 -8 -5 -3 -1 -53 -44 -33 -18 -43 -32 -17 -29 -14 -12 0
-1 -18 -17 -14 -12 -9 -8 -5 -3 -53 -44 -33 -43 -32 -29 0
-12 -14 -17 -18 -1 -29 -32 -33 -3 -43 -44 -5 -53 -8 -9 0
-12 -3 -33 -32 -29 -1 -18 -17 -14 -9 -8 -5 -53 -44 -43 0
-29 -32 -33 -3 -12 -43 -44 -5 -14 -53 -8 -17 -9 -18 -1 0
-29 -14 -5 -44 -43 -12 -3 -33 -32 -1 -18 -17 -9 -8 -53 0
-43 -44 -5 -14 -29 -53 -8 -17 -32 -9 -18 -33 -1 -3 -12 0
-43 -32 -17 -8 -53 -29 -14 -5 -44 -12 -3 -33 -1 -18 -9 0
-53 -8 -17 -32 -43 -9 -18 -33 -44 -1 -3 -5 -12 -14 -29 0
-9 -18 -33 -44 -53 -1 -3 -5 -8 -12 -14 -17 -29 -32 -43 0
-53 -44 -33 -18 -9 -43 -32 -17 -8 -29 -14 -5 -12 -3 -1 0
-1 -3 -5 -8 -10 -12 -14 -17 -19 -29 -32 -34 -43 -45 -54 0
-10 -8 -5 -3 -1 -54 -45 -34 -19 -43 -32 -17 -29 -14 -12 0
-1 -19 -17 -14 -12 -10 -8 -5 -3 -54 -45 -34 -43 -32 -29 0
-12 -14 -17 -19 -1 -29 -32 -34 -3 -43 -45 -5 -54 -8 -10 0
-12 -3 -34 -32 -29 -1 -19 -17 -14 -10 -8 -5 -54 -45 -43 0
-29 -32 -34 -3 -12 -43 -45 -5 -14 -54 -8 -17 -10 -19 -1 0
-29 -14 -5 -45 -43 -12 -3 -34 -32 -1 -19 -17 -10 -8 -54 0
-43 -45 -5 -14 -29 -54 -8 -17 -32 -10 -19 -34 -1 -3 -12 0
-43 -32 -17 -8 -54 -29 -14 -5 -45 -12 -3 -34 -1 -19 -10 0
-54 -8 -17 -32 -43 -10 -19 -34 -45 -1 -3 -5 -12 -14 -29 0
-10 -19 -34 -45 -54 -1 -3 -5 -8 -12 -14 -17 -29 -32 -43 0
-54 -45 -34 -19 -10 -43 -32 -17 -8 -29 -14 -5 -12 -3 -1 0
-1 -3 -5 -9 -10 -12 -14 -18 -19 -29 -33 -34 -44 -45 -55 0
-10 -9 -5 -3 -1 -55 -45 -34 -19 -44 -33 -18 -29 -14 -12 0
-1 -19 -18 -14 -12 -10 -9 -5 -3 -55 -45 -34 -44 -33 -29 0
-12 -14 -18 -19 -1 -29 -33 -34 -3 -44 -45 -5 -55 -9 -10 0
-12 -3 -34 -33 -29 -1 -19 -18 -14 -10 -9 -5 -55 -45 -44 0
-29 -33 -34 -3 -12 -44 -45 -5 -14 -55 -9 -18 -10 -19 -1 0
-29 -14 -5 -45 -44 -12 -3 -34 -33 -1 -19 -18 -10 -9 -55 0
-44 -45 -5 -14 -29 -55 -9 -18 -33 -10 -19 -34 -1 -3 -12 0
-44 -33 -18 -9 -55 -29 -14 -5 -45 -12 -3 -34 -1 -19 -10 0
-55 -9 -18 -33 -44 -10 -19 -34 -45 -1 -3 -5 -12 -14 -29 0
-10 -19 -34 -45 -55 -1 -3 -5 -9 -12 -14 -18 -29 -33 -44 0
-55 -45 -34 -19 -10 -44 -33 -18 -9 -29 -14 -5 -12 -3 -1 0
-1 -3 -6 -7 -8 -12 -15 -16 -17 -30 -31 -32 -46 -47 -50 0
-8 -7 -6 -3 -1 -50 -47 -32 -17 -46 -31 -16 -30 -15 -12 0
-1 -17 -16 -15 -12 -8 -7 -6 -3 -50 -47 -32 -46 -31 -30 0
-12 -15 -16 -17 -1 -30 -31 -32 -3 -46 -47 -6 -50 -7 -8 0
-12 -3 -32 -31 -30 -1 -17 -16 -15 -8 -7 -6 -50 -47 -46 0
-30 -31 -32 -3 -12 -46 -47 -6 -15 -50 -7 -16 -8 -17 -1 0
-30 -15 -6 -47 -46 -12 -3 -32 -31 -1 -17 -16 -8 -7 -50 0
-46 -47 -6 -15 -30 -50 -7 -16 -31 -8 -17 -32 -1 -3 -12 0
-46 -31 -16 -7 -50 -30 -15 -6 -47 -12 -3 -32 -1 -17 -8 0
-50 -7 -16 -31 -46 -8 -17 -32 -47 -1 -3 -6 -12 -15 -30 0
-8 -17 -32 -47 -50 -1 -3 -6 -7 -12 -15 -16 -30 -31 -46 0
-50 -47 -32 -17 -8 -46 -31 -16 -7 -30 -15 -6 -12 -3 -1 0
-1 -3 -6 -7 -9 -12 -15 -16 -18 -30 -31 -33 -46 -48 -51 0
-9 -7 -6 -3 -1 -51 -48 -33 -18 -46 -31 -16 -30 -15 -12 0
-1 -18 -16 -15 -12 -9 -7 -6 -3 -51 -48 -33 -46 -31 -30 0
-12 -15 -16 -18 -1 -30 -31 -33 -3 -46 -48 -6 -51 -7 -9 0
-12 -3 -33 -31 -30 -1 -18 -16 -15 -9 -7 -6 -51 -48 -46 0
-30 -31 -33 -3 -12 -46 -48 -6 -15 -51 -7 -16 -9 -18 -1 0
-30 -15 -6 -48 -46 -12 -3 -33 -31 -1 -18 -16 -9 -7 -51 0
-46 -48 -6 -15 -30 -51 -7 -16 -31 -9 -18 -33 -1 -3 -12 0
-46 -31 -16 -7 -51 -30 -15 -6 -48 -12 -3 -33 -1 -18 -9 0
-51 -7 -16 -31 -46 -9 -18 -33 -48 -1 -3 -6 -12 -15 -30 0
-9 -18 -33 -48 -51 -1 -3 -6 -7 -12 -15 -16 -30 -31 -46 0
-51 -48 -33 -18 -9 -46 -31 -16 -7 -30 -15 -6 -12 -3 -1 0
-1 -3 -6 -7 -10 -12 -15 -16 -19 -30 -31 -34 -46 -49 -52 0
-10 -7 -6 -3 -1 -52 -49 -34 -19 -46 -31 -16 -30 -15 -12 0
-1 -19 -16 -15 -12 -10 -7 -6 -3 -52 -49 -34 -46 -31 -30 0
-12 -15 -16 -19 -1 -30 -31 -34 -3 -46 -49 -6 -52 -7 -10 0
-12 -3 -34 -31 -30 -1 -19 -16 -15 -10 -7 -6 -52 -49 -46 0
-30 -31 -34 -3 -12 -46 -49 -6 -15 -52 -7 -16 -10 -19 -1 0
-30 -15 -6 -49 -46 -12 -3 -34 -31 -1 -19 -16 -10 -7 -52 0
-46 -49 -6 -15 -30 -52 -7 -16 -31 -10 -19 -34 -1 -3 -12 0
-46 -31 -16 -7 -52 -30 -15 -6 -49 -12 -3 -34 -1 -19 -10 0
-52 -7 -16 -31 -46 -10 -19 -34 -49 -1 -3 -6 -12 -15 -30 0
-10 -19 -34 -49 -52 -1 -3 -6 -7 -12 -15 -16 -30 -31 -46 0
-52 -49 -34 -19 -10 -46 -31 -16 -7 -30 -15 -6 -12 -3 -1 0
-1 -3 -6 -8 -9 -12 -15 -17 -18 -30 -32 -33 -47 -48 -53 0
-9 -8 -6 -3 -1 -53 -48 -33 -18 -47 -32 -17 -30 -15 -12 0
-1 -18 -17 -15 -12 -9 -8 -6 -3 -53 -48 -33 -47 -32 -30 0
-12 -15 -17 -18 -1 -30 -32 -33 -3 -47 -48 -6 -53 -8 -9 0
-12 -3 -33 -32 -30 -1 -18 -17 -15 -9 -8 -6 -53 -48 -47 0
-30 -32 -33 -3 -12 -47 -48 -6 -15 -53 -8 -17 -9 -18 -1 0
-30 -15 -6 -48 -47 -12 -3 -33 -32 -1 -18 -17 -9 -8 -53 0
-47 -48 -6 -15 -30 -53 -8 -17 -32 -9 -18 -33 -1 -3 -12 0
-47 -32 -17 -8 -53 -30 -15 -6 -48 -12 -3 -33 -1 -18 -9 0
-53 -8 -17 -32 -47 -9 -18 -33 -48 -1 -3 -6 -12 -15 -30 0
-9 -18 -33 -48 -53 -1 -3 -6 -8 -12 -15 -17 -30 -32 -47 0
-53 -48 -33 -18 -9 -47 -32 -17 -8 -30 -15 -6 -12 -3 -1 0
-1 -3 -6 -8 -10 -12 -15 -17 -19 -30 -32 -34 -47 -49 -54 0
-10 -8 -6 -3 -1 -54 -49 -34 -19 -47 -32 -17 -30 -15 -12 0
-1 -19 -17 -15 -12 -10 -8 -6 -3 -54 -49 -34 -47 -32 -30 0
-12 -15 -17 -19 -1 -30 -32 -34 -3 -47 -49 -6 -54 -8 -10 0
-12 -3 -34 -32 -30 -1 -19 -17 -15 -10 -8 -6 -54 -49 -47 0
-30 -32 -34 -3 -12 -47 -49 -6 -15 -54 -8 -17 -10 -19 -1 0
-30 -15 -6 -49 -47 -12 -3 -34 -32 -1 -19 -17 -10 -8 -54 0
-47 -49 -6 -15 -30 -54 -8 -17 -32 -10 -19 -34 -1 -3 -12 0
-47 -32 -17 -8 -54 -30 -15 -6 -49 -12 -3 -34 -1 -19 -10 0
-54 -8 -17 -32 -47 -10 -19 -34 -49 -1 -3 -6 -12 -15 -30 0
-10 -19 -34 -49 -54 -1 -3 -6 -8 -12 -15 -17 -30 -32 -47 0
-54 -49 -34 -19 -10 -47 -32 -17 -8 -30 -15 -6 -12 -3 -1 0
-1 -3 -6 -9 -10 -12 -15 -18 -19 -30 -33 -34 -48 -49 -55 0
-10 -9 -6 -3 -1 -55 -49 -34 -19 -48 -33 -18 -30 -15 -12 0
-1 -19 -18 -15 -12 -10 -9 -6 -3 -55 -49 -34 -48 -33 -30 0
-12 -15 -18 -19 -1 -30 -33 -34 -3 -48 -49 -6 -55 -9 -10 0
-12 -3 -34 -33 -30 -1 -19 -18 -15 -10 -9 -6 -55 -49 -48 0
-30 -33 -34 -3 -12 -48 -49 -6 -15 -55 -9 -18 -10 -19 -1 0
-30 -15 -6 -49 -48 -12 -3 -34 -33 -1 -19 -18 -10 -9 -55 0
-48 -49 -6 -15 -30 -55 -9 -18 -33 -10 -19 -34 -1 -3 -12 0
-48 -33 -18 -9 -55 -30 -15 -6 -49 -12 -3 -34 -1 -19 -10 0
-55 -9 -18 -33 -48 -10 -19 -34 -49 -1 -3 -6 -12 -15 -30 0
-10 -19 -34 -49 -55 -1 -3 -6 -9 -12 -15 -18 -30 -33 -48 0
-55 -49 -34 -19 -10 -48 -33 -18 -9 -30 -15 -6 -12 -3 -1 0
-1 -3 -7 -8 -9 -12 -16 -17 -18 -31 -32 -33 -50 -51 -53 0
-9 -8 -7 -3 -1 -53 -51 -33 -18 -50 -32 -17 -31 -16 -12 0
-1 -18 -17 -16 -12 -9 -8 -7 -3 -53 -51 -33 -50 -32 -31 0
-12 -16 -17 -18 -1 -31 -32 -33 -3 -50 -51 -7 -53 -8 -9 0
-12 -3 -33 -32 -31 -1 -18 -17 -16 -9 -8 -7 -53 -51 -50 0
-31 -32 -33 -3 -12 -50 -51 -7 -16 -53 -8 -17 -9 -18 -1 0
-31 -16 -7 -51 -50 -12 -3 -33 -32 -1 -18 -17 -9 -8 -53 0
-50 -51 -7 -16 -31 -53 -8 -17 -32 -9 -18 -33 -1 -3 -12 0
-50 -32 -17 -8 -53 -31 -16 -7 -51 -12 -3 -33 -1 -18 -9 0
-53 -8 -17 -32 -50 -9 -18 -33 -51 -1 -3 -7 -12 -16 -31 0
-9 -18 -33 -51 -53 -1 -3 -7 -8 -12 -16 -17 -31 -32 -50 0
-53 -51 -33 -18 -9 -50 -32 -17 -8 -31 -16 -7 -12 -3 -1 0
-1 -3 -7 -8 -10 -12 -16 -17 -19 -31 -32 -34 -50 -52 -54 0
-10 -8 -7 -3 -1 -54 -52 -34 -19 -50 -32 -17 -31 -16 -12 0
-1 -19 -17 -16 -12 -10 -8 -7 -3 -54 -52 -34 -50 -32 -31 0
-12 -16 -17 -19 -1 -31 -32 -34 -3 -50 -52 -7 -54 -8 -10 0
-12 -3 -34 -32 -31 -1 -19 -17 -16 -10 -8 -7 -54 -52 -50 0
-31 -32 -34 -3 -12 -50 -52 -7 -16 -54 -8 -17 -10 -19 -1 0
-31 -16 -7 -52 -50 -12 -3 -34 -32 -1 -19 -17 -10 -8 -54 0
-50 -52 -7 -16 -31 -54 -8 -17 -32 -10 -19 -34 -1 -3 -12 0
-50 -32 -17 -8 -54 -31 -16 -7 -52 -12 -3 -34 -1 -19 -10 0
-54 -8 -17 -32 -50 -10 -19 -34 -52 -1 -3 -7 -12 -16 -31 0
-10 -19 -34 -52 -54 -1 -3 -7 -8 -12 -16 -17 -31 -32 -50 0
-54 -52 -34 -19 -10 -50 -32 -17 -8 -31 -16 -7 -12 -3 -1 0
-1 -3 -7 -9 -10 -12 -16 -18 -19 -31 -33 -34 -51 -52 -55 0
-10 -9 -7 -3 -1 -55 -52 -34 -19 -51 -33 -18 -31 -16 -12 0
-1 -19 -18 -16 -12 -10 -9 -7 -3 -55 -52 -34 -51 -33 -31 0
-12 -16 -18 -19 -1 -31 -33 -34 -3 -51 -52 -7 -55 -9 -10 0
-12 -3 -34 -33 -31 -1 -19 -18 -16 -10 -9 -7 -55 -52 -51 0
-31 -33 -34 -3 -12 -51 -52 -7 -16 -55 -9 -18 -10 -19 -1 0
-31 -16 -7 -52 -51 -12 -3 -34 -33 -1 -19 -18 -10 -9 -55 0
-51 -52 -7 -16 -31 -55 -9 -18 -33 -10 -19 -34 -1 -3 -12 0
-51 -33 -18 -9 -55 -31 -16 -7 -52 -12 -3 -34 -1 -19 -10 0
-55 -9 -18 -33 -51 -10 -19 -34 -52 -1 -3 -7 -12 -16 -31 0
-10 -19 -34 -52 -55 -1 -3 -7 -9 -12 -16 -18 -31 -33 -51 0
-55 -52 -34 -19 -10 -51 -33 -18 -9 -31 -16 -7 -12 -3 -1 0
-1 -3 -8 -9 -10 -12 -17 -18 -19 -32 -33 -34 -53 -54 -55 0
-10 -9 -8 -3 -1 -55 -54 -34 -19 -53 -33 -18 -32 -17 -12 0
-1 -19 -18 -17 -12 -10 -9 -8 -3 -55 -54 -34 -53 -33 -32 0
-12 -17 -18 -19 -1 -32 -33 -34 -3 -53 -54 -8 -55 -9 -10 0
-12 -3 -34 -33 -32 -1 -19 -18 -17 -10 -9 -8 -55 -54 -53 0
-32 -33 -34 -3 -12 -53 -54 -8 -17 -55 -9 -18 -10 -19 -1 0
-32 -17 -8 -54 -53 -12 -3 -34 -33 -1 -19 -18 -10 -9 -55 0
-53 -54 -8 -17 -32 -55 -9 -18 -33 -10 -19 -34 -1 -3 -12 0
-53 -33 -18 -9 -55 -32 -17 -8 -54 -12 -3 -34 -1 -19 -10 0
-55 -9 -18 -33 -53 -10 -19 -34 -54 -1 -3 -8 -12 -17 -32 0
-10 -19 -34 -54 -55 -1 -3 -8 -9 -12 -17 -18 -32 -33 -53 0
-55 -54 -34 -19 -10 -53 -33 -18 -9 -32 -17 -8 -12 -3 -1 0
-1 -4 -5 -6 -7 -13 -14 -15 -16 -35 -36 -37 -41 -42 -46 0
-7 -6 -5 -4 -1 -46 -42 -37 -16 -41 -36 -15 -35 -14 -13 0
-1 -16 -15 -14 -13 -7 -6 -5 -4 -46 -42 -37 -41 -36 -35 0
-13 -14 -15 -16 -1 -35 -36 -37 -4 -41 -42 -5 -46 -6 -7 0
-13 -4 -37 -36 -35 -1 -16 -15 -14 -7 -6 -5 -46 -42 -41 0
-35 -36 -37 -4 -13 -41 -42 -5 -14 -46 -6 -15 -7 -16 -1 0
-35 -14 -5 -42 -41 -13 -4 -37 -36 -1 -16 -15 -7 -6 -46 0
-41 -42 -5 -14 -35 -46 -6 -15 -36 -7 -16 -37 -1 -4 -13 0
-41 -36 -15 -6 -46 -35 -14 -5 -42 -13 -4 -37 -1 -16 -7 0
-46 -6 -15 -36 -41 -7 -16 -37 -42 -1 -4 -5 -13 -14 -35 0
-7 -16 -37 -42 -46 -1 -4 -5 -6 -13 -14 -15 -35 -36 -41 0
-46 -42 -37 -16 -7 -41 -36 -15 -6 -35 -14 -5 -13 -4 -1 0
-1 -4 -5 -6 -8 -13 -14 -15 -17 -35 -36 -38 -41 -43 -47 0
-8 -6 -5 -4 -1 -47 -43 -38 -17 -41 -36 -15 -35 -14 -13 0
-1 -17 -15 -14 -13 -8 -6 -5 -4 -47 -43 -38 -41 -36 -35 0
-13 -14 -15 -17 -1 -35 -36 -38 -4 -41 -43 -5 -47 -6 -8 0
-13 -4 -38 -36 -35 -1 -17 -15 -14 -8 -6 -5 -47 -43 -41 0
-35 -36 -38 -4 -13 -41 -43 -5 -14 -47 -6 -15 -8 -17 -1 0
-35 -14 -5 -43 -41 -13 -4 -38 -36 -1 -17 -15 -8 -6 -47 0
-41 -43 -5 -14 -35 -47 -6 -15 -36 -8 -17 -38 -1 -4 -13 0
-41 -36 -15 -6 -47 -35 -14 -5 -43 -13 -4 -38 -1 -17 -8 0
-47 -6 -15 -36 -41 -8 -17 -38 -43 -1 -4 -5 -13 -14 -35 0
-8 -17 -38 -43 -47 -1 -4 -5 -6 -13 -14 -15 -35 -36 -41 0
-47 -43 -38 -17 -8 -41 -36 -15 -6 -35 -14 -5 -13 -4 -1 0
-1 -4 -5 -6 -9 -13 -14 -15 -18 -35 -36 -39 -41 -44 -48 0
-9 -6 -5 -4 -1 -48 -44 -39 -18 -41 -36 -15 -35 -14 -13 0
-1 -18 -15 -14 -13 -9 -6 -5 -4 -48 -44 -39 -41 -36 -35 0
-13 -14 -15 -18 -1 -35 -36 -39 -4 -41 -44 -5 -48 -6 -9 0
-13 -4 -39 -36 -35 -1 -18 -15 -14 -9 -6 -5 -48 -44 -41 0
-35 -36 -39 -4 -13 -41 -44 -5 -14 -48 -6 -15 -9 -18 -1 0
-35 -14 -5 -44 -41 -13 -4 -39 -36 -1 -18 -15 -9 -6 -48 0
-41 -44 -5 -14 -35 -48 -6 -15 -36 -9 -18 -39 -1 -4 -13 0
-41 -36 -15 -6 -48 -35 -14 -5 -44 -13 -4 -39 -1 -18 -9 0
-48 -6 -15 -36 -41 -9 -18 -39 -44 -1 -4 -5 -13 -14 -35 0
-9 -18 -39 -44 -48 -1 -4 -5 -6 -13 -14 -15 -35 -36 -41 0
-48 -44 -39 -18 -9 -41 -36 -15 -6 -35 -14 -5 -13 -4 -1 0
-1 -4 -5 -6 -10 -13 -14 -15 -19 -35 -36 -40 -41 -45 -49 0
-10 -6 -5 -4 -1 -49 -45 -40 -19 -41 -36 -15 -35 -14 -13 0
-1 -19 -15 -14 -13 -10 -6 -5 -4 -49 -45 -40 -41 -36 -35 0
-13 -14 -15 -19 -1 -35 -36 -40 -4 -41 -45 -5 -49 -6 -10 0
-13 -4 -40 -36 -35 -1 -19 -15 -14 -10 -6 -5 -49 -45 -41 0
-35 -36 -40 -4 -13 -41 -45 -5 -14 -49 -6 -15 -10 -19 -1 0
-35 -14 -5 -45 -41 -13 -4 -40 -36 -1 -19 -15 -10 -6 -49 0
-41 -45 -5 -14 -35 -49 -6 -15 -36 -10 -19 -40 -1 -4 -13 0
-41 -36 -15 -6 -49 -35 -14 -5 -45 -13 -4 -40 -1 -19 -10 0
-49 -6 -15 -36 -41 -10 -19 -40 -45 -1 -4 -5 -13 -14 -35 0
-10 -19 -40 -45 -49 -1 -4 -5 -6 -13 -14 -15 -35 -36 -41 0
-49 -45 -40 -19 -10 -41 -36 -15 -6 -35 -14 -5 -13 -4 -1 0
-1 -4 -5 -7 -8 -13 -14 -16 -17 -35 -37 -38 -42 -43 -50 0
-8 -7 -5 -4 -1 -50 -43 -38 -17 -42 -37 -16 -35 -14 -13 0
-1 -17 -16 -14 -13 -8 -7 -5 -4 -50 -43 -38 -42 -37 -35 0
-13 -14 -16 -17 -1 -35 -37 -38 -4 -42 -43 -5 -50 -7 -8 0
-13 -4 -38 -37 -35 -1 -17 -16 -14 -8 -7 -5 -50 -43 -42 0
-35 -37 -38 -4 -13 -42 -43 -5 -14 -50 -7 -16 -8 -17 -1 0
-35 -14 -5 -43 -42 -13 -4 -38 -37 -1 -17 -16 -8 -7 -50 0
-42 -43 -5 -14 -35 -50 -7 -16 -37 -8 -17 -38 -1 -4 -13 0
-42 -37 -16 -7 -50 -35 -14 -5 -43 -13 -4 -38 -1 -17 -8 0
-50 -7 -16 -37 -42 -8 -17 -38 -43 -1 -4 -5 -13 -14 -35 0
-8 -17 -38 -43 -50 -1 -4 -5 -7 -13 -14 -16 -35 -37 -42 0
-50 -43 -38 -17 -8 -42 -37 -16 -7 -35 -14 -5 -13 -4 -1 0
-1 -4 -5 -7 -9 -13 -14 -16 -18 -35 -37 -39 -42 -44 -51 0
-9 -7 -5 -4 -1 -51 -44 -39 -18 -42 -37 -16 -35 -14 -13 0
-1 -18 -16 -14 -13 -9 -7 -5 -4 -51 -44 -39 -42 -37 -35 0
-13 -14 -16 -18 -1 -35 -37 -39 -4 -42 -44 -5 -51 -7 -9 0
-13 -4 -39 -37 -35 -1 -18 -16 -14 -9 -7 -5 -51 -44 -42 0
-35 -37 -39 -4 -13 -42 -44 -5 -14 -51 -7 -16 -9 -18 -1 0
-35 -14 -5 -44 -42 -13 -4 -39 -37 -1 -18 -16 -9 -7 -51 0
-42 -44 -5 -14 -35 -51 -7 -16 -37 -9 -18 -39 -1 -4 -13 0
-42 -37 -16 -7 -51 -35 -14 -5 -44 -13 -4 -39 -1 -18 -9 0
-51 -7 -16 -37 -42 -9 -18 -39 -44 -1 -4 -5 -13 -14 -35 0
-9 -18 -39 -44 -51 -1 -4 -5 -7 -13 -14 -16 -35 -37 -42 0
-51 -44 -39 -18 -9 -42 -37 -16 -7 -35 -14 -5 -13 -4 -1 0
-1 -4 -5 -7 -10 -13 -14 -16 -19 -35 -37 -40 -42 -45 -52 0
-10 -7 -5 -4 -1 -52 -45 -40 -19 -42 -37 -16 -35 -14 -13 0
-1 -19 -16 -14 -13 -10 -7 -5 -4 -52 -45 -40 -42 -37 -35 0
-13 -14 -16 -19 -1 -35 -37 -40 -4 -42 -45 -5 -52 -7 -10 0
-13 -4 -40 -37 -35 -1 -19 -16 -14 -10 -7 -5 -52 -45 -42 0
-35 -37 -40 -4 -13 -42 -45 -5 -14 -52 -7 -16 -10 -19 -1 0
-35 -14 -5 -45 -42 -13 -4 -40 -37 -1 -19 -16 -10 -7 -52 0
-42 -45 -5 -14 -35 -52 -7 -16 -37 -10 -19 -40 -1 -4 -13 0
-42 -37 -16 -7 -52 -35 -14 -5 -45 -13 -4 -40 -1 -19 -10 0
-52 -7 -16 -37 -42 -10 -19 -40 -45 -1 -4 -5 -13 -14 -35 0
-10 -19 -40 -45 -52 -1 -4 -5 -7 -13 -14 -16 -35 -37 -42 0
-52 -45 -40 -19 -10 -42 -37 -16 -7 -35 -14 -5 -13 -4 -1 0
-1 -4 -5 -8 -9 -13 -14 -17 -18 -35 -38 -39 -43 -44 -53 0
-9 -8 -5 -4 -1 -53 -44 -39 -18 -43 -38 -17 -35 -14 -13 0
-1 -18 -17 -14 -13 -9 -8 -5 -4 -53 -44 -39 -43 -38 -35 0
-13 -14 -17 -18 -1 -35 -38 -39 -4 -43 -44 -5 -53 -8 -9 0
-13 -4 -39 -38 -35 -1 -18 -17 -14 -9 -8 -5 -53 -44 -43 0
-35 -38 -39 -4 -13 -43 -44 -5 -14 -53 -8 -17 -9 -18 -1 0
-35 -14 -5 -44 -43 -13 -4 -39 -38 -1 -18 -17 -9 -8 -53 0
-43 -44 -5 -14 -35 -53 -8 -17 -38 -9 -18 -39 -1 -4 -13 0
-43 -38 -17 -8 -53 -35 -14 -5 -44 -13 -4 -39 -1 -18 -9 0
-53 -8 -17 -38 -43 -9 -18 -39 -44 -1 -4 -5 -13 -14 -35 0
-9 -18 -39 -44 -53 -1 -4 -5 -8 -13 -14 -17 -35 -38 -43 0
-53 -44 -39 -18 -9 -43 -38 -17 -8 -35 -14 -5 -13 -4 -1 0
-1 -4 -5 -8 -10 -13 -14 -17 -19 -35 -38 -40 -43 -45 -54 0
-10 -8 -5 -4 -1 -54 -45 -40 -19 -43 -38 -17 -35 -14 -13 0
-1 -19 -17 -14 -13 -10 -8 -5 -4 -54 -45 -40 -43 -38 -35 0
-13 -14 -17 -19 -1 -35 -38 -40 -4 -43 -45 -5 -54 -8 -10 0
-13 -4 -40 -38 -35 -1 -19 -17 -14 -10 -8 -5 -54 -45 -43 0
-35 -38 -40 -4 -13 -43 -45 -5 -14 -54 -8 -17 -10 -19 -1 0
-35 -14 -5 -45 -43 -13 -4 -40 -38 -1 -19 -17 -10 -8 -54 0
-43 -45 -5 -14 -35 -54 -8 -17 -38 -10 -19 -40 -1 -4 -13 0
-43 -38 -17 -8 -54 -35 -14 -5 -45 -13 -4 -40 -1 -19 -10 0
-54 -8 -17 -38 -43 -10 -19 -40 -45 -1 -4 -5 -13 -14 -35 0
-10 -19 -40 -45 -54 -1 -4 -5 -8 -13 -14 -17 -35 -38 -43 0
-54 -45 -40 -19 -10 -43 -38 -17 -8 -35 -14 -5 -13 -4 -1 0
-1 -4 -5 -9 -10 -13 -14 -18 -19 -35 -39 -40 -44 -45 -55 0
-10 -9 -5 -4 -1 -55 -45 -40 -19 -44 -39 -18 -35 -14 -13 0
-1 -19 -18 -14 -13 -10 -9 -5 -4 -55 -45 -40 -44 -39 -35 0
-13 -14 -18 -19 -1 -35 -39 -40 -4 -44 -45 -5 -55 -9 -10 0
-13 -4 -40 -39 -35 -1 -19 -18 -14 -10 -9 -5 -55 -45 -44 0
-35 -39 -40 -4 -13 -44 -45 -5 -14 -55 -9 -18 -10 -19 -1 0
-35 -14 -5 -45 -44 -13 -4 -40 -39 -1 -19 -18 -10 -9 -55 0
-44 -45 -5 -14 -35 -55 -9 -18 -39 -10 -19 -40 -1 -4 -13 0
-44 -39 -18 -9 -55 -35 -14 -5 -45 -13 -4 -40 -1 -19 -10 0
-55 -9 -18 -39 -44 -10 -19 -40 -45 -1 -4 -5 -13 -14 -35 0
-10 -19 -40 -45 -55 -1 -4 -5 -9 -13 -14 -18 -35 -39 -44 0
-55 -45 -40 -19 -10 -44 -39 -18 -9 -35 -14 -5 -13 -4 -1 0
-1 -4 -6 -7 -8 -13 -15 -16 -17 -36 -37 -38 -46 -47 -50 0
-8 -7 -6 -4 -1 -50 -47 -38 -17 -46 -37 -16 -36 -15 -13 0
-1 -17 -16 -15 -13 -8 -7 -6 -4 -50 -47 -38 -46 -37 -36 0
-13 -15 -16 -17 -1 -36 -37 -38 -4 -46 -47 -6 -50 -7 -8 0
-13 -4 -38 -37 -36 -1 -17 -16 -15 -8 -7 -6 -50 -47 -46 0
-36 -37 -38 -4 -13 -46 -47 -6 -15 -50 -7 -16 -8 -17 -1 0
-36 -15 -6 -47 -46 -13 -4 -38 -37 -1 -17 -16 -8 -7 -50 0
-46 -47 -6 -15 -36 -50 -7 -16 -37 -8 -17 -38 -1 -4 -13 0
-46 -37 -16 -7 -50 -36 -15 -6 -47 -13 -4 -38 -1 -17 -8 0
-50 -7 -16 -37 -46 -8 -17 -38 -47 -1 -4 -6 -13 -15 -36 0
-8 -17 -38 -47 -50 -1 -4 -6 -7 -13 -15 -16 -36 -37 -46 0
-50 -47 -38 -17 -8 -46 -37 -16 -7 -36 -15 -6 -13 -4 -1 0
-1 -4 -6 -7 -9 -13 -15 -16 -18 -36 -37 -39 -46 -48 -51 0
-9 -7 -6 -4 -1 -51 -48 -39 -18 -46 -37 -16 -36 -15 -13 0
-1 -18 -16 -15 -13 -9 -7 -6 -4 -51 -48 -39 -46 -37 -36 0
-13 -15 -16 -18 -1 -36 -37 -39 -4 -46 -48 -6 -51 -7 -9 0
-13 -4 -39 -37 -36 -1 -18 -16 -15 -9 -7 -6 -51 -48 -46 0
-36 -37 -39 -4 -13 -46 -48 -6 -15 -51 -7 -16 -9 -18 -1 0
-36 -15 -6 -48 -46 -13 -4 -39 -37 -1 -18 -16 -9 -7 -51 0
-46 -48 -6 -15 -36 -51 -7 -16 -37 -9 -18 -39 -1 -4 -13 0
-46 -37 -16 -7 -51 -36 -15 -6 -48 -13 -4 -39 -1 -18 -9 0
-51 -7 -16 -37 -46 -9 -18 -39 -48 -1 -4 -6 -13 -15 -36 0
-9 -18 -39 -48 -51 -1 -4 -6 -7 -13 -15 -16 -36 -37 -46 0
-51 -48 -39 -18 -9 -46 -37 -16 -7 -36 -15 -6 -13 -4 -1 0
-1 -4 -6 -7 -10 -13 -15 -16 -19 -36 -37 -40 -46 -49 -52 0
-10 -7 -6 -4 -1 -52 -49 -40 -19 -46 -37 -16 -36 -15 -13 0
-1 -19 -16 -15 -13 -10 -7 -6 -4 -52 -49 -40 -46 -37 -36 0
-13 -15 -16 -19 -1 -36 -37 -40 -4 -46 -49 -6 -52 -7 -10 0
-13 -4 -40 -37 -36 -1 -19 -16 -15 -10 -7 -6 -52 -49 -46 0
-36 -37 -40 -4 -13 -46 -49 -6 -15 -52 -7 -16 -10 -19 -1 0
-36 -15 -6 -49 -46 -13 -4 -40 -37 -1 -19 -16 -10 -7 -52 0
-46 -49 -6 -15 -36 -52 -7 -16 -37 -10 -19 -40 -1 -4 -13 0
-46 -37 -16 -7 -52 -36 -15 -6 -49 -13 -4 -40 -1 -19 -10 0
-52 -7 -16 -37 -46 -10 -19 -40 -49 -1 -4 -6 -13 -15 -36 0
-10 -19 -40 -49 -52 -1 -4 -6 -7 -13 -15 -16 -36 -37 -46 0
-52 -49 -40 -19 -10 -46 -37 -16 -7 -36 -15 -6 -13 -4 -1 0
-1 -4 -6 -8 -9 -13 -15 -17 -18 -36 -38 -39 -47 -48 -53 0
-9 -8 -6 -4 -1 -53 -48 -39 -18 -47 -38 -17 -36 -15 -13 0
-1 -18 -17 -15 -13 -9 -8 -6 -4 -53 -48 -39 -47 -38 -36 0
-13 -15 -17 -18 -1 -36 -38 -39 -4 -47 -48 -6 -53 -8 -9 0
-13 -4 -39 -38 -36 -1 -18 -17 -15 -9 -8 -6 -53 -48 -47 0
-36 -38 -39 -4 -13 -47 -48 -6 -15 -53 -8 -17 -9 -18 -1 0
-36 -15 -6 -48 -47 -13 -4 -39 -38 -1 -18 -17 -9 -8 -53 0
-47 -48 -6 -15 -36 -53 -8 -17 -38 -9 -18 -39 -1 -4 -13 0
-47 -38 -17 -8 -53 -36 -15 -6 -48 -13 -4 -39 -1 -18 -9 0
-53 -8 -17 -38 -47 -9 -18 -39 -48 -1 -4 -6 -13 -15 -36 0
-9 -18 -39 -48 -53 -1 -4 -6 -8 -13 -15 -17 -36 -38 -47 0
-53 -48 -39 -18 -9 -47 -38 -17 -8 -36 -15 -6 -13 -4 -1 0
-1 -4 -6 -8 -10 -13 -15 -17 -19 -36 -38 -40 -47 -49 -54 0
-10 -8 -6 -4 -1 -54 -49 -40 -19 -47 -38 -17 -36 -15 -13 0
-1 -19 -17 -15 -13 -10 -8 -6 -4 -54 -49 -40 -47 -38 -36 0
-13 -15 -17 -19 -1 -36 -38 -40 -4 -47 -49 -6 -54 -8 -10 0
-13 -4 -40 -38 -36 -1 -19 -17 -15 -10 -8 -6 -54 -49 -47 0
-36 -38 -40 -4 -13 -47 -49 -6 -15 -54 -8 -17 -10 -19 -1 0
-36 -15 -6 -49 -47 -13 -4 -40 -38 -1 -19 -17 -10 -8 -54 0
-47 -49 -6 -15 -36 -54 -8 -17 -38 -10 -19 -40 -1 -4 -13 0
-47 -38 -17 -8 -54 -36 -15 -6 -49 -13 -4 -40 -1 -19 -10 0
-54 -8 -17 -38 -47 -10 -19 -40 -49 -1 -4 -6 -13 -15 -36 0
-10 -19 -40 -49 -54 -1 -4 -6 -8 -13 -15 -17 -36 -38 -47 0
-54 -49 -40 -19 -10 -47 -38 -17 -8 -36 -15 -6 -13 -4 -1 0
-1 -4 -6 -9 -10 -13 -15 -18 -19 -36 -39 -40 -48 -49 -55 0
-10 -9 -6 -4 -1 -55 -49 -40 -19 -48 -39 -18 -36 -15 -13 0
-1 -19 -18 -15 -13 -10 -9 -6 -4 -55 -49 -40 -48 -39 -36 0
-13 -15 -18 -19 -1 -36 -39 -40 -4 -48 -49 -6 -55 -9 -10 0
-13 -4 -40 -39 -36 -1 -19 -18 -15 -10 -9 -6 -55 -49 -48 0
-36 -39 -40 -4 -13 -48 -49 -6 -15 -55 -9 -18 -10 -19 -1 0
-36 -15 -6 -49 -48 -13 -4 -40 -39 -1 -19 -18 -10 -9 -55 0
-48 -49 -6 -15 -36 -55 -9 -18 -39 -10 -19 -40 -1 -4 -13 0
-48 -39 -18 -9 -55 -36 -15 -6 -49 -13 -4 -40 -1 -19 -10 0
-55 -9 -18 -39 -48 -10 -19 -40 -49 -1 -4 -6 -13 -15 -36 0
-10 -19 -40 -49 -55 -1 -4 -6 -9 -13 -15 -18 -36 -39 -48 0
-55 -49 -40 -19 -10 -48 -39 -18 -9 -36 -15 -6 -13 -4 -1 0
-1 -4 -7 -8 -9 -13 -16 -17 -18 -37 -38 -39 -50 -51 -53 0
-9 -8 -7 -4 -1 -53 -51 -39 -18 -50 -38 -17 -37 -16 -13 0
-1 -18 -17 -16 -13 -9 -8 -7 -4 -53 -51 -39 -50 -38 -37 0
-13 -16 -17 -18 -1 -37 -38 -39 -4 -50 -51 -7 -53 -8 -9 0
-13 -4 -39 -38 -37 -1 -18 -17 -16 -9 -8 -7 -53 -51 -50 0
-37 -38 -39 -4 -13 -50 -51 -7 -16 -53 -8 -17 -9 -18 -1 0
-37 -16 -7 -51 -50 -13 -4 -39 -38 -1 -18 -17 -9 -8 -53 0
-50 -51 -7 -16 -37 -53 -8 -17 -38 -9 -18 -39 -1 -4 -13 0
-50 -38 -17 -8 -53 -37 -16 -7 -51 -13 -4 -39 -1 -18 -9 0
-53 -8 -17 -38 -50 -9 -18 -39 -51 -1 -4 -7 -13 -16 -37 0
-9 -18 -39 -51 -53 -1 -4 -7 -8 -13 -16 -17 -37 -38 -50 0
-53 -51 -39 -18 -9 -50 -38 -17 -8 -37 -16 -7 -13 -4 -1 0
-1 -4 -7 -8 -10 -13 -16 -17 -19 -37 -38 -40 -50 -52 -54 0
-10 -8 -7 -4 -1 -54 -52 -40 -19 -50 -38 -17 -37 -16 -13 0
-1 -19 -17 -16 -13 -10 -8 -7 -4 -54 -52 -40 -50 -38 -37 0
-13 -16 -17 -19 -1 -37 -38 -40 -4 -50 -52 -7 -54 -8 -10 0
-13 -4 -40 -38 -37 -1 -19 -17 -16 -10 -8 -7 -54 -52 -50 0
-37 -38 -40 -4 -13 -50 -52 -7 -16 -54 -8 -17 -10 -19 -1 0
-37 -16 -7 -52 -50 -13 -4 -40 -38 -1 -19 -17 -10 -8 -54 0
-50 -52 -7 -16 -37 -54 -8 -17 -38 -10 -19 -40 -1 -4 -13 0
-50 -38 -17 -8 -54 -37 -16 -7 -52 -13 -4 -40 -1 -19 -10 0
-54 -8 -17 -38 -50 -10 -19 -40 -52 -1 -4 -7 -13 -16 -37 0
-10 -19 -40 -52 -54 -1 -4 -7 -8 -13 -16 -17 -37 -38 -50 0
-54 -52 -40 -19 -10 -50 -38 -17 -8 -37 -16 -7 -13 -4 -1 0
-1 -4 -7 -9 -10 -13 -16 -18 -19 -37 -39 -40 -51 -52 -55 0
-10 -9 -7 -4 -1 -55 -52 -40 -19 -51 -39 -18 -37 -16 -13 0
-1 -19 -18 -16 -13 -10 -9 -7 -4 -55 -52 -40 -51 -39 -37 0
-13 -16 -18 -19 -1 -37 -39 -40 -4 -51 -52 -7 -55 -9 -10 0
-13 -4 -40 -39 -37 -1 -19 -18 -16 -10 -9 -7 -55 -52 -51 0
-37 -39 -40 -4 -13 -51 -52 -7 -16 -55 -9 -18 -10 -19 -1 0
-37 -16 -7 -52 -51 -13 -4 -40 -39 -1 -19 -18 -10 -9 -55 0
-51 -52 -7 -16 -37 -55 -9 -18 -39 -10 -19 -40 -1 -4 -13 0
-51 -39 -18 -9 -55 -37 -16 -7 -52 -13 -4 -40 -1 -19 -10 0
-55 -9 -18 -39 -51 -10 -19 -40 -52 -1 -4 -7 -13 -16 -37 0
-10 -19 -40 -52 -55 -1 -4 -7 -9 -13 -16 -18 -37 -39 -51 0
-55 -52 -40 -19 -10 -51 -39 -18 -9 -37 -16 -7 -13 -4 -1 0
-1 -4 -8 -9 -10 -13 -17 -18 -19 -38 -39 -40 -53 -54 -55 0
-10 -9 -8 -4 -1 -55 -54 -40 -19 -53 -39 -18 -38 -17 -13 0
-1 -19 -18 -17 -13 -10 -9 -8 -4 -55 -54 -40 -53 -39 -38 0
-13 -17 -18 -19 -1 -38 -39 -40 -4 -53 -54 -8 -55 -9 -10 0
-13 -4 -40 -39 -38 -1 -19 -18 -17 -10 -9 -8 -55 -54 -53 0
-38 -39 -40 -4 -13 -53 -54 -8 -17 -55 -9 -18 -10 -19 -1 0
-38 -17 -8 -54 -53 -13 -4 -40 -39 -1 -19 -18 -10 -9 -55 0
-53 -54 -8 -17 -38 -55 -9 -18 -39 -10 -19 -40 -1 -4 -13 0
-53 -39 -18 -9 -55 -38 -17 -8 -54 -13 -4 -40 -1 -19 -10 0
-55 -9 -18 -39 -53 -10 -19 -40 -54 -1 -4 -8 -13 -17 -38 0
-10 -19 -40 -54 -55 -1 -4 -8 -9 -13 -17 -18 -38 -39 -53 0
-55 -54 -40 -19 -10 -53 -39 -18 -9 -38 -17 -8 -13 -4 -1 0
-1 -5 -6 -7 -8 -14 -15 -16 -17 -41 -42 -43 -46 -47 -50 0
-8 -7 -6 -5 -1 -50 -47 -43 -17 -46 -42 -16 -41 -15 -14 0
-1 -17 -16 -15 -14 -8 -7 -6 -5 -50 -47 -43 -46 -42 -41 0
-14 -15 -16 -17 -1 -41 -42 -43 -5 -46 -47 -6 -50 -7 -8 0
-14 -5 -43 -42 -41 -1 -17 -16 -15 -8 -7 -6 -50 -47 -46 0
-41 -42 -43 -5 -14 -46 -47 -6 -15 -50 -7 -16 -8 -17 -1 0
-41 -15 -6 -47 -46 -14 -5 -43 -42 -1 -17 -16 -8 -7 -50 0
-46 -47 -6 -15 -41 -50 -7 -16 -42 -8 -17 -43 -1 -5 -14 0
-46 -42 -16 -7 -50 -41 -15 -6 -47 -14 -5 -43 -1 -17 -8 0
-50 -7 -16 -42 -46 -8 -17 -43 -47 -1 -5 -6 -14 -15 -41 0
-8 -17 -43 -47 -50 -1 -5 -6 -7 -14 -15 -16 -41 -42 -46 0
-50 -47 -43 -17 -8 -46 -42 -16 -7 -41 -15 -6 -14 -5 -1 0
-1 -5 -6 -7 -9 -14 -15 -16 -18 -41 -42 -44 -46 -48 -51 0
-9 -7 -6 -5 -1 -51 -48 -44 -18 -46 -42 -16 -41 -15 -14 0
-1 -18 -16 -15 -14 -9 -7 -6 -5 -51 -48 -44 -46 -42 -41 0
-14 -15 -16 -18 -1 -41 -42 -44 -5 -46 -48 -6 -51 -7 -9 0
-14 -5 -44 -42 -41 -1 -18 -16 -15 -9 -7 -6 -51 -48 -46 0
-41 -42 -44 -5 -14 -46 -48 -6 -15 -51 -7 -16 -9 -18 -1 0
-41 -15 -6 -48 -46 -14 -5 -44 -42 -1 -18 -16 -9 -7 -51 0
-46 -48 -6 -15 -41 -51 -7 -16 -42 -9 -18 -44 -1 -5 -14 0
-46 -42 -16 -7 -51 -41 -15 -6 -48 -14 -5 -44 -1 -18 -9 0
-51 -7 -16 -42 -46 -9 -18 -44 -48 -1 -5 -6 -14 -15 -41 0
-9 -18 -44 -48 -51 -1 -5 -6 -7 -14 -15 -16 -41 -42 -46 0
-51 -48 -44 -18 -9 -46 -42 -16 -7 -41 -15 -6 -14 -5 -1 0
-1 -5 -6 -7 -10 -14 -15 -16 -19 -41 -42 -45 -46 -49 -52 0
-10 -7 -6 -5 -1 -52 -49 -45 -19 -46 -42 -16 -41 -15 -14 0
-1 -19 -16 -15 -14 -10 -7 -6 -5 -52 -49 -45 -46 -42 -41 0
-14 -15 -16 -19 -1 -41 -42 -45 -5 -46 -49 -6 -52 -7 -10 0
-14 -5 -45 -42 -41 -1 -19 -16 -15 -10 -7 -6 -52 -49 -46 0
-41 -42 -45 -5 -14 -46 -49 -6 -15 -52 -7 -16 -10 -19 -1 0
-41 -15 -6 -49 -46 -14 -5 -45 -42 -1 -19 -16 -10 -7 -52 0
-46 -49 -6 -15 -41 -52 -7 -16 -42 -10 -19 -45 -1 -5 -14 0
-46 -42 -16 -7 -52 -41 -15 -6 -49 -14 -5 -45 -1 -19 -10 0
-52 -7 -16 -42 -46 -10 -19 -45 -49 -1 -5 -6 -14 -15 -41 0
-10 -19 -45 -49 -52 -1 -5 -6 -7 -14 -15 -16 -41 -42 -46 0
-52 -49 -45 -19 -10 -46 -42 -16 -7 -41 -15 -6 -14 -5 -1 0
-1 -5 -6 -8 -9 -14 -15 -17 -18 -41 -43 -44 -47 -48 -53 0
-9 -8 -6 -5 -1 -53 -48 -44 -18 -47 -43 -17 -41 -15 -14 0
-1 -18 -17 -15 -14 -9 -8 -6 -5 -53 -48 -44 -47 -43 -41 0
-14 -15 -17 -18 -1 -41 -43 -44 -5 -47 -48 -6 -53 -8 -9 0
-14 -5 -44 -43 -41 -1 -18 -17 -15 -9 -8 -6 -53 -48 -47 0
-41 -43 -44 -5 -14 -47 -48 -6 -15 -53 -8 -17 -9 -18 -1 0
-41 -15 -6 -48 -47 -14 -5 -44 -43 -1 -18 -17 -9 -8 -53 0
-47 -48 -6 -15 -41 -53 -8 -17 -43 -9 -18 -44 -1 -5 -14 0
-47 -43 -17 -8 -53 -41 -15 -6 -48 -14 -5 -44 -1 -18 -9 0
-53 -8 -17 -43 -47 -9 -18 -44 -48 -1 -5 -6 -14 -15 -41 0
-9 -18 -44 -48 -53 -1 -5 -6 -8 -14 -15 -17 -41 -43 -47 0
-53 -48 -44 -18 -9 -47 -43 -17 -8 -41 -15 -6 -14 -5 -1 0
-1 -5 -6 -8 -10 -14 -15 -17 -19 -41 -43 -45 -47 -49 -54 0
-10 -8 -6 -5 -1 -54 -49 -45 -19 -47 -43 -17 -41 -15 -14 0
-1 -19 -17 -15 -14 -10 -8 -6 -5 -54 -49 -45 -47 -43 -41 0
-14 -15 -17 -19 -1 -41 -43 -45 -5 -47 -49 -6 -54 -8 -10 0
-14 -5 -45 -43 -41 -1 -19 -17 -15 -10 -8 -6 -54 -49 -47 0
-41 -43 -45 -5 -14 -47 -49 -6 -15 -54 -8 -17 -10 -19 -1 0
-41 -15 -6 -49 -47 -14 -5 -45 -43 -1 -19 -17 -10 -8 -54 0
-47 -49 -6 -15 -41 -54 -8 -17 -43 -10 -19 -45 -1 -5 -14 0
-47 -43 -17 -8 -54 -41 -15 -6 -49 -14 -5 -45 -1 -19 -10 0
-54 -8 -17 -43 -47 -10 -19 -45 -49 -1 -5 -6 -14 -15 -41 0
-10 -19 -45 -49 -54 -1 -5 -6 -8 -14 -15 -17 -41 -43 -47 0
-54 -49 -45 -19 -10 -47 -43 -17 -8 -41 -15 -6 -14 -5 -1 0
-1 -5 -6 -9 -10 -14 -15 -18 -19 -41 -44 -45 -48 -49 -55 0
-10 -9 -6 -5 -1 -55 -49 -45 -19 -48 -44 -18 -41 -15 -14 0
-1 -19 -18 -15 -14 -10 -9 -6 -5 -55 -49 -45 -48 -44 -41 0
-14 -15 -18 -19 -1 -41 -44 -45 -5 -48 -49 -6 -55 -9 -10 0
-14 -5 -45 -44 -41 -1 -19 -18 -15 -10 -9 -6 -55 -49 -48 0
-41 -44 -45 -5 -14 -48 -49 -6 -15 -55 -9 -18 -10 -19 -1 0
-41 -15 -6 -49 -48 -14 -5 -45 -44 -1 -19 -18 -10 -9 -55 0
-48 -49 -6 -15 -41 -55 -9 -18 -44 -10 -19 -45 -1 -5 -14 0
-48 -44 -18 -9 -55 -41 -15 -6 -49 -14 -5 -45 -1 -19 -10 0
-55 -9 -18 -44 -48 -10 -19 -45 -49 -1 -5 -6 -14 -15 -41 0
-10 -19 -45 -49 -55 -1 -5 -6 -9 -14 -15 -18 -41 -44 -48 0
-55 -49 -45 -19 -10 -48 -44 -18 -9 -41 -15 -6 -14 -5 -1 0
-1 -5 -7 -8 -9 -14 -16 -17 -18 -42 -43 -44 -50 -51 -53 0
-9 -8 -7 -5 -1 -53 -51 -44 -18 -50 -43 -17 -42 -16 -14 0
-1 -18 -17 -16 -14 -9 -8 -7 -5 -53 -51 -44 -50 -43 -42 0
-14 -16 -17 -18 -1 -42 -43 -44 -5 -50 -51 -7 -53 -8 -9 0
-14 -5 -44 -43 -42 -1 -18 -17 -16 -9 -8 -7 -53 -51 -50 0
-42 -43 -44 -5 -14 -50 -51 -7 -16 -53 -8 -17 -9 -18 -1 0
-42 -16 -7 -51 -50 -14 -5 -44 -43 -1 -18 -17 -9 -8 -53 0
-50 -51 -7 -16 -42 -53 -8 -17 -43 -9 -18 -44 -1 -5 -14 0
-50 -43 -17 -8 -53 -42 -16 -7 -51 -14 -5 -44 -1 -18 -9 0
-53 -8 -17 -43 -50 -9 -18 -44 -51 -1 -5 -7 -14 -16 -42 0
-9 -18 -44 -51 -53 -1 -5 -7 -8 -14 -16 -17 -42 -43 -50 0
-53 -51 -44 -18 -9 -50 -43 -17 -8 -42 -16 -7 -14 -5 -1 0
-1 -5 -7 -8 -10 -14 -16 -17 -19 -42 -43 -45 -50 -52 -54 0
-10 -8 -7 -5 -1 -54 -52 -45 -19 -50 -43 -17 -42 -16 -14 0
-1 -19 -17 -16 -14 -10 -8 -7 -5 -54 -52 -45 -50 -43 -42 0
-14 -16 -17 -19 -1 -42 -43 -45 -5 -50 -52 -7 -54 -8 -10 0
-14 -5 -45 -43 -42 -1 -19 -17 -16 -10 -8 -7 -54 -52 -50 0
-42 -43 -45 -5 -14 -50 -52 -7 -16 -54 -8 -17 -10 -19 -1 0
-42 -16 -7 -52 -50 -14 -5 -45 -43 -1 -19 -17 -10 -8 -54 0
-50 -52 -7 -16 -42 -54 -8 -17 -43 -10 -19 -45 -1 -5 -14 0
-50 -43 -17 -8 -54 -42 -16 -7 -52 -14 -5 -45 -1 -19 -10 0
-54 -8 -17 -43 -50 -10 -19 -45 -52 -1 -5 -7 -14 -16 -42 0
-10 -19 -45 -52 -54 -1 -5 -7 -8 -14 -16 -17 -42 -43 -50 0
-54 -52 -45 -19 -10 -50 -43 -17 -8 -42 -16 -7 -14 -5 -1 0
-1 -5 -7 -9 -10 -14 -16 -18 -19 -42 -44 -45 -51 -52 -55 0
-10 -9 -7 -5 -1 -55 -52 -45 -19 -51 -44 -18 -42 -16 -14 0
-1 -19 -18 -16 -14 -10 -9 -7 -5 -55 -52 -45 -51 -44 -42 0
-14 -16 -18 -19 -1 -42 -44 -45 -5 -51 -52 -7 -55 -9 -10 0
-14 -5 -45 -44 -42 -1 -19 -18 -16 -10 -9 -7 -55 -52 -51 0
-42 -44 -45 -5 -14 -51 -52 -7 -16 -55 -9 -18 -10 -19 -1 0
-42 -16 -7 -52 -51 -14 -5 -45 -44 -1 -19 -18 -10 -9 -55 0
-51 -52 -7 -16 -42 -55 -9 -18 -44 -10 -19 -45 -1 -5 -14 0
-51 -44 -18 -9 -55 -42 -16 -7 -52 -14 -5 -45 -1 -19 -10 0
-55 -9 -18 -44 -51 -10 -19 -45 -52 -1 -5 -7 -14 -16 -42 0
-10 -19 -45 -52 -55 -1 -5 -7 -9 -14 -16 -18 -42 -44 -51 0
-55 -52 -45 -19 -10 -51 -44 -18 -9 -42 -16 -7 -14 -5 -1 0
-1 -5 -8 -9 -10 -14 -17 -18 -19 -43 -44 -45 -53 -54 -55 0
-10 -9 -8 -5 -1 -55 -54 -45 -19 -53 -44 -18 -43 -17 -14 0
-1 -19 -18 -17 -14 -10 -9 -8 -5 -55 -54 -45 -53 -44 -43 0
-14 -17 -18 -19 -1 -43 -44 -45 -5 -53 -54 -8 -55 -9 -10 0
-14 -5 -45 -44 -43 -1 -19 -18 -17 -10 -9 -8 -55 -54 -53 0
-43 -44 -45 -5 -14 -53 -54 -8 -17 -55 -9 -18 -10 -19 -1 0
-43 -17 -8 -54 -53 -14 -5 -45 -44 -1 -19 -18 -10 -9 -55 0
-53 -54 -8 -17 -43 -55 -9 -18 -44 -10 -19 -45 -1 -5 -14 0
-53 -44 -18 -9 -55 -43 -17 -8 -54 -14 -5 -45 -1 -19 -10 0
-55 -9 -18 -44 -53 -10 -19 -45 -54 -1 -5 -8 -14 -17 -43 0
-10 -19 -45 -54 -55 -1 -5 -8 -9 -14 -17 -18 -43 -44 -53 0
-55 -54 -45 -19 -10 -53 -44 -18 -9 -43 -17 -8 -14 -5 -1 0
-1 -6 -7 -8 -9 -15 -16 -17 -18 -46 -47 -48 -50 -51 -53 0
-9 -8 -7 -6 -1 -53 -51 -48 -18 -50 -47 -17 -46 -16 -15 0
-1 -18 -17 -16 -15 -9 -8 -7 -6 -53 -51 -48 -50 -47 -46 0
-15 -16 -17 -18 -1 -46 -47 -48 -6 -50 -51 -7 -53 -8 -9 0
-15 -6 -48 -47 -46 -1 -18 -17 -16 -9 -8 -7 -53 -51 -50 0
-46 -47 -48 -6 -15 -50 -51 -7 -16 -53 -8 -17 -9 -18 -1 0
-46 -16 -7 -51 -50 -15 -6 -48 -47 -1 -18 -17 -9 -8 -53 0
-50 -51 -7 -16 -46 -53 -8 -17 -47 -9 -18 -48 -1 -6 -15 0
-50 -47 -17 -8 -53 -46 -16 -7 -51 -15 -6 -48 -1 -18 -9 0
-53 -8 -17 -47 -50 -9 -18 -48 -51 -1 -6 -7 -15 -16 -46 0
-9 -18 -48 -51 -53 -1 -6 -7 -8 -15 -16 -17 -46 -47 -50 0
-53 -51 -48 -18 -9 -50 -47 -17 -8 -46 -16 -7 -15 -6 -1 0
-1 -6 -7 -8 -10 -15 -16 -17 -19 -46 -47 -49 -50 -52 -54 0
-10 -8 -7 -6 -1 -54 -52 -49 -19 -50 -47 -17 -46 -16 -15 0
-1 -19 -17 -16 -15 -10 -8 -7 -6 -54 -52 -49 -50 -47 -46 0
-15 -16 -17 -19 -1 -46 -47 -49 -6 -50 -52 -7 -54 -8 -10 0
-15 -6 -49 -47 -46 -1 -19 -17 -16 -10 -8 -7 -54 -52 -50 0
-46 -47 -49 -6 -15 -50 -52 -7 -16 -54 -8 -17 -10 -19 -1 0
-46 -16 -7 -52 -50 -15 -6 -49 -47 -1 -19 -17 -10 -8 -54 0
-50 -52 -7 -16 -46 -54 -8 -17 -47 -10 -19 -49 -1 -6 -15 0
-50 -47 -17 -8 -54 -46 -16 -7 -52 -15 -6 -49 -1 -19 -10 0
-54 -8 -17 -47 -50 -10 -19 -49 -52 -1 -6 -7 -15 -16 -46 0
-10 -19 -49 -52 -54 -1 -6 -7 -8 -15 -16 -17 -46 -47 -50 0
-54 -52 -49 -19 -10 -50 -47 -17 -8 -46 -16 -7 -15 -6 -1 0
-1 -6 -7 -9 -10 -15 -16 -18 -19 -46 -48 -49 -51 -52 -55 0
-10 -9 -7 -6 -1 -55 -52 -49 -19 -51 -48 -18 -46 -16 -15 0
-1 -19 -18 -16 -15 -10 -9 -7 -6 -55 -52 -49 -51 -48 -46 0
-15 -16 -18 -19 -1 -46 -48 -49 -6 -51 -52 -7 -55 -9 -10 0
-15 -6 -49 -48 -46 -1 -19 -18 -16 -10 -9 -7 -55 -52 -51 0
-46 -48 -49 -6 -15 -51 -52 -7 -16 -55 -9 -18 -10 -19 -1 0
-46 -16 -7 -52 -51 -15 -6 -49 -48 -1 -19 -18 -10 -9 -55 0
-51 -52 -7 -16 -46 -55 -9 -18 -48 -10 -19 -49 -1 -6 -15 0
-51 -48 -18 -9 -55 -46 -16 -7 -52 -15 -6 -49 -1 -19 -10 0
-55 -9 -18 -48 -51 -10 -19 -49 -52 -1 -6 -7 -15 -16 -46 0
-10 -19 -49 -52 -55 -1 -6 -7 -9 -15 -16 -18 -46 -48 -51 0
-55 -52 -49 -19 -10 -51 -48 -18 -9 -46 -16 -7 -15 -6 -1 0
-1 -6 -8 -9 -10 -15 -17 -18 -19 -47 -48 -49 -53 -54 -55 0
-10 -9 -8 -6 -1 -55 -54 -49 -19 -53 -48 -18 -47 -17 -15 0
-1 -19 -18 -17 -15 -10 -9 -8 -6 -55 -54 -49 -53 -48 -47 0
-15 -17 -18 -19 -1 -47 -48 -49 -6 -53 -54 -8 -55 -9 -10 0
-15 -6 -49 -48 -47 -1 -19 -18 -17 -10 -9 -8 -55 -54 -53 0
-47 -48 -49 -6 -15 -53 -54 -8 -17 -55 -9 -18 -10 -19 -1 0
-47 -17 -8 -54 -53 -15 -6 -49 -48 -1 -19 -18 -10 -9 -55 0
-53 -54 -8 -17 -47 -55 -9 -18 -48 -10 -19 -49 -1 -6 -15 0
-53 -48 -18 -9 -55 -47 -17 -8 -54 -15 -6 -49 -1 -19 -10 0
-55 -9 -18 -48 -53 -10 -19 -49 -54 -1 -6 -8 -15 -17 -47 0
-10 -19 -49 -54 -55 -1 -6 -8 -9 -15 -17 -18 -47 -48 -53 0
-55 -54 -49 -19 -10 -53 -48 -18 -9 -47 -17 -8 -15 -6 -1 0
-1 -7 -8 -9 -10 -16 -17 -18 -19 -50 -51 -52 -53 -54 -55 0
-10 -9 -8 -7 -1 -55 -54 -52 -19 -53 -51 -18 -50 -17 -16 0
-1 -19 -18 -17 -16 -10 -9 -8 -7 -55 -54 -52 -53 -51 -50 0
-16 -17 -18 -19 -1 -50 -51 -52 -7 -53 -54 -8 -55 -9 -10 0
-16 -7 -52 -51 -50 -1 -19 -18 -17 -10 -9 -8 -55 -54 -53 0
-50 -51 -52 -7 -16 -53 -54 -8 -17 -55 -9 -18 -10 -19 -1 0
-50 -17 -8 -54 -53 -16 -7 -52 -51 -1 -19 -18 -10 -9 -55 0
-53 -54 -8 -17 -50 -55 -9 -18 -51 -10 -19 -52 -1 -7 -16 0
-53 -51 -18 -9 -55 -50 -17 -8 -54 -16 -7 -52 -1 -19 -10 0
-55 -9 -18 -51 -53 -10 -19 -52 -54 -1 -7 -8 -16 -17 -50 0
-10 -19 -52 -54 -55 -1 -7 -8 -9 -16 -17 -18 -50 -51 -53 0
-55 -54 -52 -19 -10 -53 -51 -18 -9 -50 -17 -8 -16 -7 -1 0
-2 -3 -4 -5 -6 -20 -21 -22 -23 -28 -29 -30 -35 -36 -41 0
-6 -5 -4 -3 -2 -41 -36 -30 -23 -35 -29 -22 -28 -21 -20 0
-2 -23 -22 -21 -20 -6 -5 -4 -3 -41 -36 -30 -35 -29 -28 0
-20 -21 -22 -23 -2 -28 -29 -30 -3 -35 -36 -4 -41 -5 -6 0
-20 -3 -30 -29 -28 -2 -23 -22 -21 -6 -5 -4 -41 -36 -35 0
-28 -29 -30 -3 -20 -35 -36 -4 -21 -41 -5 -22 -6 -23 -2 0
-28 -21 -4 -36 -35 -20 -3 -30 -29 -2 -23 -22 -6 -5 -41 0
-35 -36 -4 -21 -28 -41 -5 -22 -29 -6 -23 -30 -2 -3 -20 0
-35 -29 -22 -5 -41 -28 -21 -4 -36 -20 -3 -30 -2 -23 -6 0
-41 -5 -22 -29 -35 -6 -23 -30 -36 -2 -3 -4 -20 -21 -28 0
-6 -23 -30 -36 -41 -2 -3 -4 -5 -20 -21 -22 -28 -29 -35 0
-41 -36 -30 -23 -6 -35 -29 -22 -5 -28 -21 -4 -20 -3 -2 0
-2 -3 -4 -5 -7 -20 -21 -22 -24 -28 -29 -31 -35 -37 -42 0
-7 -5 -4 -3 -2 -42 -37 -31 -24 -35 -29 -22 -28 -21 -20 0
-2 -24 -22 -21 -20 -7 -5 -4 -3 -42 -37 -31 -35 -29 -28 0
-20 -21 -22 -24 -2 -28 -29 -31 -3 -35 -37 -4 -42 -5 -7 0
-20 -3 -31 -29 -28 -2 -24 -22 -21 -7 -5 -4 -42 -37 -35 0
-28 -29 -31 -3 -20 -35 -37 -4 -21 -42 -5 -22 -7 -24 -2 0
-28 -21 -4 -37 -35 -20 -3 -31 -29 -2 -24 -22 -7 -5 -42 0
-35 -37 -4 -21 -28 -42 -5 -22 -29 -7 -24 -31 -2 -3 -20 0
-35 -29 -22 -5 -42 -28 -21 -4 -37 -20 -3 -31 -2 -24 -7 0
-42 -5 -22 -29 -35 -7 -24 -31 -37 -2 -3 -4 -20 -21 -28 0
-7 -24 -31 -37 -42 -2 -3 -4 -5 -20 -21 -22 -28 -29 -35 0
-42 -37 -31 -24 -7 -35 -29 -22 -5 -28 -21 -4 -20 -3 -2 0
-2 -3 -4 -5 -8 -20 -21 -22 -25 -28 -29 -32 -35 -38 -43 0
-8 -5 -4 -3 -2 -43 -38 -32 -25 -35 -29 -22 -28 -21 -20 0
-2 -25 -22 -21 -20 -8 -5 -4 -3 -43 -38 -32 -35 -29 -28 0
-20 -21 -22 -25 -2 -28 -29 -32 -3 -35 -38 -4 -43 -5 -8 0
-20 -3 -32 -29 -28 -2 -25 -22 -21 -8 -5 -4 -43 -38 -35 0
-28 -29 -32 -3 -20 -35 -38 -4 -21 -43 -5 -22 -8 -25 -2 0
-28 -21 -4 -38 -35 -20 -3 -32 -29 -2 -25 -22 -8 -5 -43 0
-35 -38 -4 -21 -28 -43 -5 -22 -29 -8 -25 -32 -2 -3 -20 0
-35 -29 -22 -5 -43 -28 -21 -4 -38 -20 -3 -32 -2 -25 -8 0
-43 -5 -22 -29 -35 -8 -25 -32 -38 -2 -3 -4 -20 -21 -28 0
-8 -25 -32 -38 -43 -2 -3 -4 -5 -20 -21 -22 -28 -29 -35 0
-43 -38 -32 -25 -8 -35 -29 -22 -5 -28 -21 -4 -20 -3 -2 0
-2 -3 -4 -5 -9 -20 -21 -22 -26 -28 -29 -33 -35 -39 -44 0
-9 -5 -4 -3 -2 -44 -39 -33 -26 -35 -29 -22 -28 -21 -20 0
-2 -26 -22 -21 -20 -9 -5 -4 -3 -44 -39 -33 -35 -29 -28 0
-20 -21 -22 -26 -2 -28 -29 -33 -3 -35 -39 -4 -44 -5 -9 0
-20 -3 -33 -29 -28 -2 -26 -22 -21 -9 -5 -4 -44 -39 -35 0
-28 -29 -33 -3 -20 -35 -39 -4 -21 -44 -5 -22 -9 -26 -2 0
-28 -21 -4 -39 -35 -20 -3 -33 -29 -2 -26 -22 -9 -5 -44 0
-35 -39 -4 -21 -28 -44 -5 -22 -29 -9 -26 -33 -2 -3 -20 0
-35 -29 -22 -5 -44 -28 -21 -4 -39 -20 -3 -33 -2 -26 -9 0
-44 -5 -22 -29 -35 -9 -26 -33 -39 -2 -3 -4 -20 -21 -28 0
-9 -26 -33 -39 -44 -2 -3 -4 -5 -20 -21 -22 -28 -29 -35 0
-44 -39 -33 -26 -9 -35 -29 -22 -5 -28 -21 -4 -20 -3 -2 0
-2 -3 -4 -5 -10 -20 -21 -22 -27 -28 -29 -34 -35 -40 -45 0
-10 -5 -4 -3 -2 -45 -40 -34 -27 -35 -29 -22 -28 -21 -20 0
-2 -27 -22 -21 -20 -10 -5 -4 -3 -45 -40 -34 -35 -29 -28 0
-20 -21 -22 -27 -2 -28 -29 -34 -3 -35 -40 -4 -45 -5 -10 0
-20 -3 -34 -29 -28 -2 -27 -22 -21 -10 -5 -4 -45 -40 -35 0
-28 -29 -34 -3 -20 -35 -40 -4 -21 -45 -5 -22 -10 -27 -2 0
-28 -21 -4 -40 -35 -20 -3 -34 -29 -2 -27 -22 -10 -5 -45 0
-35 -40 -4 -21 -28 -45 -5 -22 -29 -10 -27 -34 -2 -3 -20 0
-35 -29 -22 -5 -45 -28 -21 -4 -40 -20 -3 -34 -2 -27 -10 0
-45 -5 -22 -29 -35 -10 -27 -34 -40 -2 -3 -4 -20 -21 -28 0
-10 -27 -34 -40 -45 -2 -3 -4 -5 -20 -21 -22 -28 -29 -35 0
-45 -40 -34 -27 -10 -35 -29 -22 -5 -28 -21 -4 -20 -3 -2 0
-2 -3 -4 -6 -7 -20 -21 -23 -24 -28 -30 -31 -36 -37 -46 0
-7 -6 -4 -3 -2 -46 -37 -31 -24 -36 -30 -23 -28 -21 -20 0
-2 -24 -23 -21 -20 -7 -6 -4 -3 -46 -37 -31 -36 -30 -28 0
-20 -21 -23 -24 -2 -28 -30 -31 -3 -36 -37 -4 -46 -6 -7 0
-20 -3 -31 -30 -28 -2 -24 -23 -21 -7 -6 -4 -46 -37 -36 0
-28 -30 -31 -3 -20 -36 -37 -4 -21 -46 -6 -23 -7 -24 -2 0
-28 -21 -4 -37 -36 -20 -3 -31 -30 -2 -24 -23 -7 -6 -46 0
-36 -37 -4 -21 -28 -46 -6 -23 -30 -7 -24 -31 -2 -3 -20 0
-36 -30 -23 -6 -46 -28 -21 -4 -37 -20 -3 -31 -2 -24 -7 0
-46 -6 -23 -30 -36 -7 -24 -31 -37 -2 -3 -4 -20 -21 -28 0
-7 -24 -31 -37 -46 -2 -3 -4 -6 -20 -21 -23 -28 -30 -36 0
-46 -37 -31 -24 -7 -36 -30 -23 -6 -28 -21 -4 -20 -3 -2 0
-2 -3 -4 -6 -8 -20 -21 -23 -25 -28 -30 -32 -36 -38 -47 0
-8 -6 -4 -3 -2 -47 -38 -32 -25 -36 -30 -23 -28 -21 -20 0
-2 -25 -23 -21 -20 -8 -6 -4 -3 -47 -38 -32 -36 -30 -28 0
-20 -21 -23 -25 -2 -28 -30 -32 -3 -36 -38 -4 -47 -6 -8 0
-20 -3 -32 -30 -28 -2 -25 -23 -21 -8 -6 -4 -47 -38 -36 0
-28 -30 -32 -3 -20 -36 -38 -4 -21 -47 -6 -23 -8 -25 -2 0
-28 -21 -4 -38 -36 -20 -3 -32 -30 -2 -25 -23 -8 -6 -47 0
-36 -38 -4 -21 -28 -47 -6 -23 -30 -8 -25 -32 -2 -3 -20 0
-36 -30 -23 -6 -47 -28 -21 -4 -38 -20 -3 -32 -2 -25 -8 0
-47 -6 -23 -30 -36 -8 -25 -32 -38 -2 -3 -4 -20 -21 -28 0
-8 -25 -32 -38 -47 -2 -3 -4 -6 -20 -21 -23 -28 -30 -36 0
-47 -38 -32 -25 -8 -36 -30 -23 -6 -28 -21 -4 -20 -3 -2 0
-2 -3 -4 -6 -9 -20 -21 -23 -26 -28 -30 -33 -36 -39 -48 0
-9 -6 -4 -3 -2 -48 -39 -33 -26 -36 -30 -23 -28 -21 -20 0
-2 -26 -23 -21 -20 -9 -6 -4 -3 -48 -39 -33 -36 -30 -28 0
-20 -21 -23 -26 -2 -28 -30 -33 -3 -36 -39 -4 -48 -6 -9 0
-20 -3 -33 -30 -28 -2 -26 -23 -21 -9 -6 -4 -48 -39 -36 0
-28 -30 -33 -3 -20 -36 -39 -4 -21 -48 -6 -23 -9 -26 -2 0
-28 -21 -4 -39 -36 -20 -3 -33 -30 -2 -26 -23 -9 -6 -48 0
-36 -39 -4 -21 -28 -48 -6 -23 -30 -9 -26 -33 -2 -3 -20 0
-36 -30 -23 -6 -48 -28 -21 -4 -39 -20 -3 -33 -2 -26 -9 0
-48 -6 -23 -30 -36 -9 -26 -33 -39 -2 -3 -4 -20 -21 -28 0
-9 -26 -33 -39 -48 -2 -3 -4 -6 -20 -21 -23 -28 -30 -36 0
-48 -39 -33 -26 -9 -36 -30 -23 -6 -28 -21 -4 -20 -3 -2 0
-2 -3 -4 -6 -10 -20 -21 -23 -27 -28 -30 -34 -36 -40 -49 0
-10 -6 -4 -3 -2 -49 -40 -34 -27 -36 -30 -23 -28 -21 -20 0
-2 -27 -23 -21 -20 -10 -6 -4 -3 -49 -40 -34 -36 -30 -28 0
-20 -21 -23 -27 -2 -28 -30 -34 -3 -36 -40 -4 -49 -6 -10 0
-20 -3 -34 -30 -28 -2 -27 -23 -21 -10 -6 -4 -49 -40 -36 0
-28 -30 -34 -3 -20 -36 -40 -4 -21 -49 -6 -23 -10 -27 -2 0
-28 -21 -4 -40 -36 -20 -3 -34 -30 -2 -27 -23 -10 -6 -49 0
-36 -40 -4 -21 -28 -49 -6 -23 -30 -10 -27 -34 -2 -3 -20 0
-36 -30 -23 -6 -49 -28 -21 -4 -40 -20 -3 -34 -2 -27 -10 0
-49 -6 -23 -30 -36 -10 -27 -34 -40 -2 -3 -4 -20 -21 -28 0
-10 -27 -34 -40 -49 -2 -3 -4 -6 -20 -21 -23 -28 -30 -36 0
-49 -40 -34 -27 -10 -36 -30 -23 -6 -28 -21 -4 -20 -3 -2 0
-2 -3 -4 -7 -8 -20 -21 -24 -25 -28 -31 -32 -37 -38 -50 0
-8 -7 -4 -3 -2 -50 -38 -32 -25 -37 -31 -24 -28 -21 -20 0
-2 -25 -24 -21 -20 -8 -7 -4 -3 -50 -38 -32 -37 -31 -28 0
-20 -21 -24 -25 -2 -28 -31 -32 -3 -37 -38 -4 -50 -7 -8 0
-20 -3 -32 -31 -28 -2 -25 -24 -21 -8 -7 -4 -50 -38 -37 0
-28 -31 -32 -3 -20 -37 -38 -4 -21 -50 -7 -24 -8 -25 -2 0
-28 -21 -4 -38 -37 -20 -3 -32 -31 -2 -25 -24 -8 -7 -50 0
-37 -38 -4 -21 -28 -50 -7 -24 -31 -8 -25 -32 -2 -3 -20 0
-37 -31 -24 -7 -50 -28 -21 -4 -38 -20 -3 -32 -2 -25 -8 0
-50 -7 -24 -31 -37 -8 -25 -32 -38 -2 -3 -4 -20 -21 -28 0
-8 -25 -32 -38 -50 -2 -3 -4 -7 -20 -21 -24 -28 -31 -37 0
-50 -38 -32 -25 -8 -37 -31 -24 -7 -28 -21 -4 -20 -3 -2 0
-2 -3 -4 -7 -9 -20 -21 -24 -26 -28 -31 -33 -37 -39 -51 0
-9 -7 -4 -3 -2 -51 -39 -33 -26 -37 -31 -24 -28 -21 -20 0
-2 -26 -24 -21 -20 -9 -7 -4 -3 -51 -39 -33 -37 -31 -28 0
-20 -21 -24 -26 -2 -28 -31 -33 -3 -37 -39 -4 -51 -7 -9 0
-20 -3 -33 -31 -28 -2 -26 -24 -21 -9 -7 -4 -51 -39 -37 0
-28 -31 -33 -3 -20 -37 -39 -4 -21 -51 -7 -24 -9 -26 -2 0
-28 -21 -4 -39 -37 -20 -3 -33 -31 -2 -26 -24 -9 -7 -51 0
-37 -39 -4 -21 -28 -51 -7 -24 -31 -9 -26 -33 -2 -3 -20 0
-37 -31 -24 -7 -51 -28 -21 -4 -39 -20 -3 -33 -2 -26 -9 0
-51 -7 -24 -31 -37 -9 -26 -33 -39 -2 -3 -4 -20 -21 -28 0
-9 -26 -33 -39 -51 -2 -3 -4 -7 -20 -21 -24 -28 -31 -37 0
-51 -39 -33 -26 -9 -37 -31 -24 -7 -28 -21 -4 -20 -3 -2 0
-2 -3 -4 -7 -10 -20 -21 -24 -27 -28 -31 -34 -37 -40 -52 0
-10 -7 -4 -3 -2 -52 -40 -34 -27 -37 -31 -24 -28 -21 -20 0
-2 -27 -24 -21 -20 -10 -7 -4 -3 -52 -40 -34 -37 -31 -28 0
-20 -21 -24 -27 -2 -28 -31 -34 -3 -37 -40 -4 -52 -7 -10 0
-20 -3 -34 -31 -28 -2 -27 -24 -21 -10 -7 -4 -52 -40 -37 0
-28 -31 -34 -3 -20 -37 -40 -4 -21 -52 -7 -24 -10 -27 -2 0
-28 -21 -4 -40 -37 -20 -3 -34 -31 -2 -27 -24 -10 -7 -52 0
-37 -40 -4 -21 -28 -52 -7 -24 -31 -10 -27 -34 -2 -3 -20 0
-37 -31 -24 -7 -52 -28 -21 -4 -40 -20 -3 -34 -2 -27 -10 0
-52 -7 -24 -31 -37 -10 -27 -34 -40 -2 -3 -4 -20 -21 -28 0
-10 -27 -34 -40 -52 -2 -3 -4 -7 -20 -21 -24 -28 -31 -37 0
-52 -40 -34 -27 -10 -37 -31 -24 -7 -28 -21 -4 -20 -3 -2 0
-2 -3 -4 -8 -9 -20 -21 -25 -26 -28 -32 -33 -38 -39 -53 0
-9 -8 -4 -3 -2 -53 -39 -33 -26 -38 -32 -25 -28 -21 -20 0
-2 -26 -25 -21 -20 -9 -8 -4 -3 -53 -39 -33 -38 -32 -28 0
-20 -21 -25 -26 -2 -28 -32 -33 -3 -38 -39 -4 -53 -8 -9 0
-20 -3 -33 -32 -28 -2 -26 -25 -21 -9 -8 -4 -53 -39 -38 0
-28 -32 -33 -3 -20 -38 -39 -4 -21 -53 -8 -25 -9 -26 -2 0
-28 -21 -4 -39 -38 -20 -3 -33 -32 -2 -26 -25 -9 -8 -53 0
-38 -39 -4 -21 -28 -53 -8 -25 -32 -9 -26 -33 -2 -3 -20 0
-38 -32 -25 -8 -53 -28 -21 -4 -39 -20 -3 -33 -2 -26 -9 0
-53 -8 -25 -32 -38 -9 -26 -33 -39 -2 -3 -4 -20 -21 -28 0
-9 -26 -33 -39 -53 -2 -3 -4 -8 -20 -21 -25 -28 -32 -38 0
-53 -39 -33 -26 -9 -38 -32 -25 -8 -28 -21 -4 -20 -3 -2 0
-2 -3 -4 -8 -10 -20 -21 -25 -27 -28 -32 -34 -38 -40 -54 0
-10 -8 -4 -3 -2 -54 -40 -34 -27 -38 -32 -25 -28 -21 -20 0
-2 -27 -25 -21 -20 -10 -8 -4 -3 -54 -40 -34 -38 -32 -28 0
-20 -21 -25 -27 -2 -28 -32 -34 -3 -38 -40 -4 -54 -8 -10 0
-20 -3 -34 -32 -28 -2 -27 -25 -21 -10 -8 -4 -54 -40 -38 0
-28 -32 -34 -3 -20 -38 -40 -4 -21 -54 -8 -25 -10 -27 -2 0
-28 -21 -4 -40 -38 -20 -3 -34 -32 -2 -27 -25 -10 -8 -54 0
-38 -40 -4 -21 -28 -54 -8 -25 -32 -10 -27 -34 -2 -3 -20 0
-38 -32 -25 -8 -54 -28 -21 -4 -40 -20 -3 -34 -2 -27 -10 0
-54 -8 -25 -32 -38 -10 -27 -34 -40 -2 -3 -4 -20 -21 -28 0
-10 -27 -34 -40 -54 -2 -3 -4 -8 -20 -21 -25 -28 -32 -38 0
-54 -40 -34 -27 -10 -38 -32 -25 -8 -28 -21 -4 -20 -3 -2 0
-2 -3 -4 -9 -10 -20 -21 -26 -27 -28 -33 -34 -39 -40 -55 0
-10 -9 -4 -3 -2 -55 -40 -34 -27 -39 -33 -26 -28 -21 -20 0
-2 -27 -26 -21 -20 -10 -9 -4 -3 -55 -40 -34 -39 -33 -28 0
-20 -21 -26 -27 -2 -28 -33 -34 -3 -39 -40 -4 -55 -9 -10 0
-20 -3 -34 -33 -28 -2 -27 -26 -21 -10 -9 -4 -55 -40 -39 0
-28 -33 -34 -3 -20 -39 -40 -4 -21 -55 -9 -26 -10 -27 -2 0
-28 -21 -4 -40 -39 -20 -3 -34 -33 -2 -27 -26 -10 -9 -55 0
-39 -40 -4 -21 -28 -55 -9 -26 -33 -10 -27 -34 -2 -3 -20 0
-39 -33 -26 -9 -55 -28 -21 -4 -40 -20 -3 -34 -2 -27 -10 0
-55 -9 -26 -33 -39 -10 -27 -34 -40 -2 -3 -4 -20 -21 -28 0
-10 -27 -34 -40 -55 -2 -3 -4 -9 -20 -21 -26 -28 -33 -39 0
-55 -40 -34 -27 -10 -39 -33 -26 -9 -28 -21 -4 -20 -3 -2 0
-2 -3 -5 -6 -7 -20 -22 -23 -24 -29 -30 -31 -41 -42 -46 0
-7 -6 -5 -3 -2 -46 -42 -31 -24 -41 -30 -23 -29 -22 -20 0
-2 -24 -23 -22 -20 -7 -6 -5 -3 -46 -42 -31 -41 -30 -29 0
-20 -22 -23 -24 -2 -29 -30 -31 -3 -41 -42 -5 -46 -6 -7 0
-20 -3 -31 -30 -29 -2 -24 -23 -22 -7 -6 -5 -46 -42 -41 0
-29 -30 -31 -3 -20 -41 -42 -5 -22 -46 -6 -23 -7 -24 -2 0
-29 -22 -5 -42 -41 -20 -3 -31 -30 -2 -24 -23 -7 -6 -46 0
-41 -42 -5 -22 -29 -46 -6 -23 -30 -7 -24 -31 -2 -3 -20 0
-41 -30 -23 -6 -46 -29 -22 -5 -42 -20 -3 -31 -2 -24 -7 0
-46 -6 -23 -30 -41 -7 -24 -31 -42 -2 -3 -5 -20 -22 -29 0
-7 -24 -31 -42 -46 -2 -3 -5 -6 -20 -22 -23 -29 -30 -41 0
-46 -42 -31 -24 -7 -41 -30 -23 -6 -29 -22 -5 -20 -3 -2 0
-2 -3 -5 -6 -8 -20 -22 -23 -25 -29 -30 -32 -41 -43 -47 0
-8 -6 -5 -3 -2 -47 -43 -32 -25 -41 -30 -23 -29 -22 -20 0
-2 -25 -23 -22 -20 -8 -6 -5 -3 -47 -43 -32 -41 -30 -29 0
-20 -22 -23 -25 -2 -29 -30 -32 -3 -41 -43 -5 -47 -6 -8 0
-20 -3 -32 -30 -29 -2 -25 -23 -22 -8 -6 -5 -47 -43 -41 0
-29 -30 -32 -3 -20 -41 -43 -5 -22 -47 -6 -23 -8 -25 -2 0
-29 -22 -5 -43 -41 -20 -3 -32 -30 -2 -25 -23 -8 -6 -47 0
-41 -43 -5 -22 -29 -47 -6 -23 -30 -8 -25 -32 -2 -3 -20 0
-41 -30 -23 -6 -47 -29 -22 -5 -43 -20 -3 -32 -2 -25 -8 0
-47 -6 -23 -30 -41 -8 -25 -32 -43 -2 -3 -5 -20 -22 -29 0
-8 -25 -32 -43 -47 -2 -3 -5 -6 -20 -22 -23 -29 -30 -41 0
-47 -43 -32 -25 -8 -41 -30 -23 -6 -29 -22 -5 -20 -3 -2 0
-2 -3 -5 -6 -9 -20 -22 -23 -26 -29 -30 -33 -41 -44 -48 0
-9 -6 -5 -3 -2 -48 -44 -33 -26 -41 -30 -23 -29 -22 -20 0
-2 -26 -23 -22 -20 -9 -6 -5 -3 -48 -44 -33 -41 -30 -29 0
-20 -22 -23 -26 -2 -29 -30 -33 -3 -41 -44 -5 -48 -6 -9 0
-20 -3 -33 -30 -29 -2 -26 -23 -22 -9 -6 -5 -48 -44 -41 0
-29 -30 -33 -3 -20 -41 -44 -5 -22 -48 -6 -23 -9 -26 -2 0
-29 -22 -5 -44 -41 -20 -3 -33 -30 -2 -26 -23 -9 -6 -48 0
-41 -44 -5 -22 -29 -48 -6 -23 -30 -9 -26 -33 -2 -3 -20 0
-41 -30 -23 -6 -48 -29 -22 -5 -44 -20 -3 -33 -2 -26 -9 0
-48 -6 -23 -30 -41 -9 -26 -33 -44 -2 -3 -5 -20 -22 -29 0
-9 -26 -33 -44 -48 -2 -3 -5 -6 -20 -22 -23 -29 -30 -41 0
-48 -44 -33 -26 -9 -41 -30 -23 -6 -29 -22 -5 -20 -3 -2 0
-2 -3 -5 -6 -10 -20 -22 -23 -27 -29 -30 -34 -41 -45 -49 0
-10 -6 -5 -3 -2 -49 -45 -34 -27 -41 -30 -23 -29 -22 -20 0
-2 -27 -23 -22 -20 -10 -6 -5 -3 -49 -45 -34 -41 -30 -29 0
-20 -22 -23 -27 -2 -29 -30 -34 -3 -41 -45 -5 -49 -6 -10 0
-20 -3 -34 -30 -29 -2 -27 -23 -22 -10 -6 -5 -49 -45 -41 0
-29 -30 -34 -3 -20 -41 -45 -5 -22 -49 -6 -23 -10 -27 -2 0
-29 -22 -5 -45 -41 -20 -3 -34 -30 -2 -27 -23 -10 -6 -49 0
-41 -45 -5 -22 -29 -49 -6 -23 -30 -10 -27 -34 -2 -3 -20 0
-41 -30 -23 -6 -49 -29 -22 -5 -45 -20 -3 -34 -2 -27 -10 0
-49 -6 -23 -30 -41 -10 -27 -34 -45 -2 -3 -5 -20 -22 -29 0
-10 -27 -34 -45 -49 -2 -3 -5 -6 -20 -22 -23 -29 -30 -41 0
-49 -45 -34 -27 -10 -41 -30 -23 -6 -29 -22 -5 -20 -3 -2 0
-2 -3 -5 -7 -8 -20 -22 -24 -25 -29 -31 -32 -42 -43 -50 0
-8 -7 -5 -3 -2 -50 -43 -32 -25 -42 -31 -24 -29 -22 -20 0
-2 -25 -24 -22 -20 -8 -7 -5 -3 -50 -43 -32 -42 -31 -29 0
-20 -22 -24 -25 -2 -29 -31 -32 -3 -42 -43 -5 -50 -7 -8 0
-20 -3 -32 -31 -29 -2 -25 -24 -22 -8 -7 -5 -50 -43 -42 0
-29 -31 -32 -3 -20 -42 -43 -5 -22 -50 -7 -24 -8 -25 -2 0
-29 -22 -5 -43 -42 -20 -3 -32 -31 -2 -25 -24 -8 -7 -50 0
-42 -43 -5 -22 -29 -50 -7 -24 -31 -8 -25 -32 -2 -3 -20 0
-42 -31 -24 -7 -50 -29 -22 -5 -43 -20 -3 -32 -2 -25 -8 0
-50 -7 -24 -31 -42 -8 -25 -32 -43 -2 -3 -5 -20 -22 -29 0
-8 -25 -32 -43 -50 -2 -3 -5 -7 -20 -22 -24 -29 -31 -42 0
-50 -43 -32 -25 -8 -42 -31 -24 -7 -29 -22 -5 -20 -3 -2 0
-2 -3 -5 -7 -9 -20 -22 -24 -26 -29 -31 -33 -42 -44 -51 0
-9 -7 -5 -3 -2 -51 -44 -33 -26 -42 -31 -24 -29 -22 -20 0
-2 -26 -24 -22 -20 -9 -7 -5 -3 -51 -44 -33 -42 -31 -29 0
-20 -22 -24 -26 -2 -29 -31 -33 -3 -42 -44 -5 -51 -7 -9 0
-20 -3 -33 -31 -29 -2 -26 -24 -22 -9 -7 -5 -51 -44 -42 0
-29 -31 -33 -3 -20 -42 -44 -5 -22 -51 -7 -24 -9 -26 -2 0
-29 -22 -5 -44 -42 -20 -3 -33 -31 -2 -26 -24 -9 -7 -51 0
-42 -44 -5 -22 -29 -51 -7 -24 -31 -9 -26 -33 -2 -3 -20 0
-42 -31 -24 -7 -51 -29 -22 -5 -44 -20 -3 -33 -2 -26 -9 0
-51 -7 -24 -31 -42 -9 -26 -33 -44 -2 -3 -5 -20 -22 -29 0
-9 -26 -33 -44 -51 -2 -3 -5 -7 -20 -22 -24 -29 -31 -42 0
-51 -44 -33 -26 -9 -42 -31 -24 -7 -29 -22 -5 -20 -3 -2 0
-2 -3 -5 -7 -10 -20 -22 -24 -27 -29 -31 -34 -42 -45 -52 0
-10 -7 -5 -3 -2 -52 -45 -34 -27 -42 -31 -24 -29 -22 -20 0
-2 -27 -24 -22 -20 -10 -7 -5 -3 -52 -45 -34 -42 -31 -29 0
-20 -22 -24 -27 -2 -29 -31 -34 -3 -42 -45 -5 -52 -7 -10 0
-20 -3 -34 -31 -29 -2 -27 -24 -22 -10 -7 -5 -52 -45 -42 0
-29 -31 -34 -3 -20 -42 -45 -5 -22 -52 -7 -24 -10 -27 -2 0
-29 -22 -5 -45 -42 -20 -3 -34 -31 -2 -27 -24 -10 -7 -52 0
-42 -45 -5 -22 -29 -52 -7 -24 -31 -10 -27 -34 -2 -3 -20 0
-42 -31 -24 -7 -52 -29 -22 -5 -45 -20 -3 -34 -2 -27 -10 0
-52 -7 -24 -31 -42 -10 -27 -34 -45 -2 -3 -5 -20 -22 -29 0
-10 -27 -34 -45 -52 -2 -3 -5 -7 -20 -22 -24 -29 -31 -42 0
-52 -45 -34 -27 -10 -42 -31 -24 -7 -29 -22 -5 -20 -3 -2 0
-2 -3 -5 -8 -9 -20 -22 -25 -26 -29 -32 -33 -43 -44 -53 0
-9 -8 -5 -3 -2 -53 -44 -33 -26 -43 -32 -25 -29 -22 -20 0
-2 -26 -25 -22 -20 -9 -8 -5 -3 -53 -44 -33 -43 -32 -29 0
-20 -22 -25 -26 -2 -29 -32 -33 -3 -43 -44 -5 -53 -8 -9 0
-20 -3 -33 -32 -29 -2 -26 -25 -22 -9 -8 -5 -53 -44 -43 0
-29 -32 -33 -3 -20 -43 -44 -5 -22 -53 -8 -25 -9 -26 -2 0
-29 -22 -5 -44 -43 -20 -3 -33 -32 -2 -26 -25 -9 -8 -53 0
-43 -44 -5 -22 -29 -53 -8 -25 -32 -9 -26 -33 -2 -3 -20 0
-43 -32 -25 -8 -53 -29 -22 -5 -44 -20 -3 -33 -2 -26 -9 0
-53 -8 -25 -32 -43 -9 -26 -33 -44 -2 -3 -5 -20 -22 -29 0
-9 -26 -33 -44 -53 -2 -3 -5 -8 -20 -22 -25 -29 -32 -43 0
-53 -44 -33 -26 -9 -43 -32 -25 -8 -29 -22 -5 -20 -3 -2 0
-2 -3 -5 -8 -10 -20 -22 -25 -27 -29 -32 -34 -43 -45 -54 0
-10 -8 -5 -3 -2 -54 -45 -34 -27 -43 -32 -25 -29 -22 -20 0
-2 -27 -25 -22 -20 -10 -8 -5 -3 -54 -45 -34 -43 -32 -29 0
-20 -22 -25 -27 -2 -29 -32 -34 -3 -43 -45 -5 -54 -8 -10 0
-20 -3 -34 -32 -29 -2 -27 -25 -22 -10 -8 -5 -54 -45 -43 0
-29 -32 -34 -3 -20 -43 -45 -5 -22 -54 -8 -25 -10 -27 -2 0
-29 -22 -5 -45 -43 -20 -3 -34 -32 -2 -27 -25 -10 -8 -54 0
-43 -45 -5 -22 -29 -54 -8 -25 -32 -10 -27 -34 -2 -3 -20 0
-43 -32 -25 -8 -54 -29 -22 -5 -45 -20 -3 -34 -2 -27 -10 0
-54 -8 -25 -32 -43 -10 -27 -34 -45 -2 -3 -5 -20 -22 -29 0
-10 -27 -34 -45 -54 -2 -3 -5 -8 -20 -22 -25 -29 -32 -43 0
-54 -45 -34 -27 -10 -43 -32 -25 -8 -29 -22 -5 -20 -3 -2 0
-2 -3 -5 -9 -10 -20 -22 -26 -27 -29 -33 -34 -44 -45 -55 0
-10 -9 -5 -3 -2 -55 -45 -34 -27 -44 -33 -26 -29 -22 -20 0
-2 -27 -26 -22 -20 -10 -9 -5 -3 -55 -45 -34 -44 -33 -29 0
-20 -22 -26 -27 -2 -29 -33 -34 -3 -44 -45 -5 -55 -9 -10 0
-20 -3 -34 -33 -29 -2 -27 -26 -22 -10 -9 -5 -55 -45 -44 0
-29 -33 -34 -3 -20 -44 -45 -5 -22 -55 -9 -26 -10 -27 -2 0
-29 -22 -5 -45 -44 -20 -3 -34 -33 -2 -27 -26 -10 -9 -55 0
-44 -45 -5 -22 -29 -55 -9 -26 -33 -10 -27 -34 -2 -3 -20 0
-44 -33 -26 -9 -55 -29 -22 -5 -45 -20 -3 -34 -2 -27 -10 0
-55 -9 -26 -33 -44 -10 -27 -34 -45 -2 -3 -5 -20 -22 -29 0
-10 -27 -34 -45 -55 -2 -3 -5 -9 -20 -22 -26 -29 -33 -44 0
-55 -45 -34 -27 -10 -44 -33 -26 -9 -29 -22 -5 -20 -3 -2 0
-2 -3 -6 -7 -8 -20 -23 -24 -25 -30 -31 -32 -46 -47 -50 0
-8 -7 -6 -3 -2 -50 -47 -32 -25 -46 -31 -24 -30 -23 -20 0
-2 -25 -24 -23 -20 -8 -7 -6 -3 -50 -47 -32 -46 -31 -30 0
-20 -23 -24 -25 -2 -30 -31 -32 -3 -46 -47 -6 -50 -7 -8 0
-20 -3 -32 -31 -30 -2 -25 -24 -23 -8 -7 -6 -50 -47 -46 0
-30 -31 -32 -3 -20 -46 -47 -6 -23 -50 -7 -24 -8 -25 -2 0
-30 -23 -6 -47 -46 -20 -3 -32 -31 -2 -25 -24 -8 -7 -50 0
-46 -47 -6 -23 -30 -50 -7 -24 -31 -8 -25 -32 -2 -3 -20 0
-46 -31 -24 -7 -50 -30 -23 -6 -47 -20 -3 -32 -2 -25 -8 0
-50 -7 -24 -31 -46 -8 -25 -32 -47 -2 -3 -6 -20 -23 -30 0
-8 -25 -32 -47 -50 -2 -3 -6 -7 -20 -23 -24 -30 -31 -46 0
-50 -47 -32 -25 -8 -46 -31 -24 -7 -30 -23 -6 -20 -3 -2 0
-2 -3 -6 -7 -9 -20 -23 -24 -26 -30 -31 -33 -46 -48 -51 0
-9 -7 -6 -3 -2 -51 -48 -33 -26 -46 -31 -24 -30 -23 -20 0
-2 -26 -24 -23 -20 -9 -7 -6 -3 -51 -48 -33 -46 -31 -30 0
-20 -23 -24 -26 -2 -30 -31 -33 -3 -46 -48 -6 -51 -7 -9 0
-20 -3 -33 -31 -30 -2 -26 -24 -23 -9 -7 -6 -51 -48 -46 0
-30 -31 -33 -3 -20 -46 -48 -6 -23 -51 -7 -24 -9 -26 -2 0
-30 -23 -6 -48 -46 -20 -3 -33 -31 -2 -26 -24 -9 -7 -51 0
-46 -48 -6 -23 -30 -51 -7 -24 -31 -9 -26 -33 -2 -3 -20 0
-46 -31 -24 -7 -51 -30 -23 -6 -48 -20 -3 -33 -2 -26 -9 0
-51 -7 -24 -31 -46 -9 -26 -33 -48 -2 -3 -6 -20 -23 -30 0
-9 -26 -33 -48 -51 -2 -3 -6 -7 -20 -23 -24 -30 -31 -46 0
-51 -48 -33 -26 -9 -46 -31 -24 -7 -30 -23 -6 -20 -3 -2 0
-2 -3 -6 -7 -10 -20 -23 -24 -27 -30 -31 -34 -46 -49 -52 0
-10 -7 -6 -3 -2 -52 -49 -34 -27 -46 -31 -24 -30 -23 -20 0
-2 -27 -24 -23 -20 -10 -7 -6 -3 -52 -49 -34 -46 -31 -30 0
-20 -23 -24 -27 -2 -30 -31 -34 -3 -46 -49 -6 -52 -7 -10 0
-20 -3 -34 -31 -30 -2 -27 -24 -23 -10 -7 -6 -52 -49 -46 0
-30 -31 -34 -3 -20 -46 -49 -6 -23 -52 -7 -24 -10 -27 -2 0
-30 -23 -6 -49 -46 -20 -3 -34 -31 -2 -27 -24 -10 -7 -52 0
-46 -49 -6 -23 -30 -52 -7 -24 -31 -10 -27 -34 -2 -3 -20 0
-46 -31 -24 -7 -52 -30 -23 -6 -49 -20 -3 -34 -2 -27 -10 0
-52 -7 -24 -31 -46 -10 -27 -34 -49 -2 -3 -6 -20 -23 -30 0
-10 -27 -34 -49 -52 -2 -3 -6 -7 -20 -23 -24 -30 -31 -46 0
-52 -49 -34 -27 -10 -46 -31 -24 -7 -30 -23 -6 -20 -3 -2 0
-2 -3 -6 -8 -9 -20 -23 -25 -26 -30 -32 -33 -47 -48 -53 0
-9 -8 -6 -3 -2 -53 -48 -33 -26 -47 -32 -25 -30 -23 -20 0
-2 -26 -25 -23 -20 -9 -8 -6 -3 -53 -48 -33 -47 -32 -30 0
-20 -23 -25 -26 -2 -30 -32 -33 -3 -47 -48 -6 -53 -8 -9 0
-20 -3 -33 -32 -30 -2 -26 -25 -23 -9 -8 -6 -53 -48 -47 0
-30 -32 -33 -3 -20 -47 -48 -6 -23 -53 -8 -25 -9 -26 -2 0
-30 -23 -6 -48 -47 -20 -3 -33 -32 -2 -26 -25 -9 -8 -53 0
-47 -48 -6 -23 -30 -53 -8 -25 -32 -9 -26 -33 -2 -3 -20 0
-47 -32 -25 -8 -53 -30 -23 -6 -48 -20 -3 -33 -2 -26 -9 0
-53 -8 -25 -32 -47 -9 -26 -33 -48 -2 -3 -6 -20 -23 -30 0
-9 -26 -33 -48 -53 -2 -3 -6 -8 -20 -23 -25 -30 -32 -47 0
-53 -48 -33 -26 -9 -47 -32 -25 -8 -30 -23 -6 -20 -3 -2 0
-2 -3 -6 -8 -10 -20 -23 -25 -27 -30 -32 -34 -47 -49 -54 0
-10 -8 -6 -3 -2 -54 -49 -34 -27 -47 -32 -25 -30 -23 -20 0
-2 -27 -25 -23 -20 -10 -8 -6 -3 -54 -49 -34 -47 -32 -30 0
-20 -23 -25 -27 -2 -30 -32 -34 -3 -47 -49 -6 -54 -8 -10 0
-20 -3 -34 -32 -30 -2 -27 -25 -23 -10 -8 -6 -54 -49 -47 0
-30 -32 -34 -3 -20 -47 -49 -6 -23 -54 -8 -25 -10 -27 -2 0
-30 -23 -6 -49 -47 -20 -3 -34 -32 -2 -27 -25 -10 -8 -54 0
-47 -49 -6 -23 -30 -54 -8 -25 -32 -10 -27 -34 -2 -3 -20 0
-47 -32 -25 -8 -54 -30 -23 -6 -49 -20 -3 -34 -2 -27 -10 0
-54 -8 -25 -32 -47 -10 -27 -34 -49 -2 -3 -6 -20 -23 -30 0
-10 -27 -34 -49 -54 -2 -3 -6 -8 -20 -23 -25 -30 -32 -47 0
-54 -49 -34 -27 -10 -47 -32 -25 -8 -30 -23 -6 -20 -3 -2 0
-2 -3 -6 -9 -10 -20 -23 -26 -27 -30 -33 -34 -48 -49 -55 0
-10 -9 -6 -3 -2 -55 -49 -34 -27 -48 -33 -26 -30 -23 -20 0
-2 -27 -26 -23 -20 -10 -9 -6 -3 -55 -49 -34 -48 -33 -30 0
-20 -23 -26 -27 -2 -30 -33 -34 -3 -48 -49 -6 -55 -9 -10 0
-20 -3 -34 -33 -30 -2 -27 -26 -23 -10 -9 -6 -55 -49 -48 0
-30 -33 -34 -3 -20 -48 -49 -6 -23 -55 -9 -26 -10 -27 -2 0
-30 -23 -6 -49 -48 -20 -3 -34 -33 -2 -27 -26 -10 -9 -55 0
-48 -49 -6 -23 -30 -55 -9 -26 -33 -10 -27 -34 -2 -3 -20 0
-48 -33 -26 -9 -55 -30 -23 -6 -49 -20 -3 -34 -2 -27 -10 0
-55 -9 -26 -33 -48 -10 -27 -34 -49 -2 -3 -6 -20 -23 -30 0
-10 -27 -34 -49 -55 -2 -3 -6 -9 -20 -23 -26 -30 -33 -48 0
-55 -49 -34 -27 -10 -48 -33 -26 -9 -30 -23 -6 -20 -3 -2 0
-2 -3 -7 -8 -9 -20 -24 -25 -26 -31 -32 -33 -50 -51 -53 0
-9 -8 -7 -3 -2 -53 -51 -33 -26 -50 -32 -25 -31 -24 -20 0
-2 -26 -25 -24 -20 -9 -8 -7 -3 -53 -51 -33 -50 -32 -31 0
-20 -24 -25 -26 -2 -31 -32 -33 -3 -50 -51 -7 -53 -8 -9 0
-20 -3 -33 -32 -31 -2 -26 -25 -24 -9 -8 -7 -53 -51 -50 0
-31 -32 -33 -3 -20 -50 -51 -7 -24 -53 -8 -25 -9 -26 -2 0
-31 -24 -7 -51 -50 -20 -3 -33 -32 -2 -26 -25 -9 -8 -53 0
-50 -51 -7 -24 -31 -53 -8 -25 -32 -9 -26 -33 -2 -3 -20 0
-50 -32 -25 -8 -53 -31 -24 -7 -51 -20 -3 -33 -2 -26 -9 0
-53 -8 -25 -32 -50 -9 -26 -33 -51 -2 -3 -7 -20 -24 -31 0
-9 -26 -33 -51 -53 -2 -3 -7 -8 -20 -24 -25 -31 -32 -50 0
-53 -51 -33 -26 -9 -50 -32 -25 -8 -31 -24 -7 -20 -3 -2 0
-2 -3 -7 -8 -10 -20 -24 -25 -27 -31 -32 -34 -50 -52 -54 0
-10 -8 -7 -3 -2 -54 -52 -34 -27 -50 -32 -25 -31 -24 -20 0
-2 -27 -25 -24 -20 -10 -8 -7 -3 -54 -52 -34 -50 -32 -31 0
-20 -24 -25 -27 -2 -31 -32 -34 -3 -50 -52 -7 -54 -8 -10 0
-20 -3 -34 -32 -31 -2 -27 -25 -24 -10 -8 -7 -54 -52 -50 0
-31 -32 -34 -3 -20 -50 -52 -7 -24 -54 -8 -25 -10 -27 -2 0
-31 -24 -7 -52 -50 -20 -3 -34 -32 -2 -27 -25 -10 -8 -54 0
-50 -52 -7 -24 -31 -54 -8 -25 -32 -10 -27 -34 -2 -3 -20 0
-50 -32 -25 -8 -54 -31 -24 -7 -52 -20 -3 -34 -2 -27 -10 0
-54 -8 -25 -32 -50 -10 -27 -34 -52 -2 -3 -7 -20 -24 -31 0
-10 -27 -34 -52 -54 -2 -3 -7 -8 -20 -24 -25 -31 -32 -50 0
-54 -52 -34 -27 -10 -50 -32 -25 -8 -31 -24 -7 -20 -3 -2 0
-2 -3 -7 -9 -10 -20 -24 -26 -27 -31 -33 -34 -51 -52 -55 0
-10 -9 -7 -3 -2 -55 -52 -34 -27 -51 -33 -26 -31 -24 -20 0
-2 -27 -26 -24 -20 -10 -9 -7 -3 -55 -52 -34 -51 -33 -31 0
-20 -24 -26 -27 -2 -31 -33 -34 -3 -51 -52 -7 -55 -9 -10 0
-20 -3 -34 -33 -31 -2 -27 -26 -24 -10 -9 -7 -55 -52 -51 0
-31 -33 -34 -3 -20 -51 -52 -7 -24 -55 -9 -26 -10 -27 -2 0
-31 -24 -7 -52 -51 -20 -3 -34 -33 -2 -27 -26 -10 -9 -55 0
-51 -52 -7 -24 -31 -55 -9 -26 -33 -10 -27 -34 -2 -3 -20 0
-51 -33 -26 -9 -55 -31 -24 -7 -52 -20 -3 -34 -2 -27 -10 0
-55 -9 -26 -33 -51 -10 -27 -34 -52 -2 -3 -7 -20 -24 -31 0
-10 -27 -34 -52 -55 -2 -3 -7 -9 -20 -24 -26 -31 -33 -51 0
-55 -52 -34 -27 -10 -51 -33 -26 -9 -31 -24 -7 -20 -3 -2 0
-2 -3 -8 -9 -10 -20 -25 -26 -27 -32 -33 -34 -53 -54 -55 0
-10 -9 -8 -3 -2 -55 -54 -34 -27 -53 -33 -26 -32 -25 -20 0
-2 -27 -26 -25 -20 -10 -9 -8 -3 -55 -54 -34 -53 -33 -32 0
-20 -25 -26 -27 -2 -32 -33 -34 -3 -53 -54 -8 -55 -9 -10 0
-20 -3 -34 -33 -32 -2 -27 -26 -25 -10 -9 -8 -55 -54 -53 0
-32 -33 -34 -3 -20 -53 -54 -8 -25 -55 -9 -26 -10 -27 -2 0
-32 -25 -8 -54 -53 -20 -3 -34 -33 -2 -27 -26 -10 -9 -55 0
-53 -54 -8 -25 -32 -55 -9 -26 -33 -10 -27 -34 -2 -3 -20 0
-53 -33 -26 -9 -55 -32 -25 -8 -54 -20 -3 -34 -2 -27 -10 0
-55 -9 -26 -33 -53 -10 -27 -34 -54 -2 -3 -8 -20 -25 -32 0
-10 -27 -34 -54 -55 -2 -3 -8 -9 -20 -25 -26 -32 -33 -53 0
-55 -54 -34 -27 -10 -53 -33 -26 -9 -32 -25 -8 -20 -3 -2 0
-2 -4 -5 -6 -7 -21 -22 -23 -24 -35 -36 -37 -41 -42 -46 0
-7 -6 -5 -4 -2 -46 -42 -37 -24 -41 -36 -23 -35 -22 -21 0
-2 -24 -23 -22 -21 -7 -6 -5 -4 -46 -42 -37 -41 -36 -35 0
-21 -22 -23 -24 -2 -35 -36 -37 -4 -41 -42 -5 -46 -6 -7 0
-21 -4 -37 -36 -35 -2 -24 -23 -22 -7 -6 -5 -46 -42 -41 0
-35 -36 -37 -4 -21 -41 -42 -5 -22 -46 -6 -23 -7 -24 -2 0
-35 -22 -5 -42 -41 -21 -4 -37 -36 -2 -24 -23 -7 -6 -46 0
-41 -42 -5 -22 -35 -46 -6 -23 -36 -7 -24 -37 -2 -4 -21 0
-41 -36 -23 -6 -46 -35 -22 -5 -42 -21 -4 -37 -2 -24 -7 0
-46 -6 -23 -36 -41 -7 -24 -37 -42 -2 -4 -5 -21 -22 -35 0
-7 -24 -37 -42 -46 -2 -4 -5 -6 -21 -22 -23 -35 -36 -41 0
-46 -42 -37 -24 -7 -41 -36 -23 -6 -35 -22 -5 -21 -4 -2 0
-2 -4 -5 -6 -8 -21 -22 -23 -25 -35 -36 -38 -41 -43 -47 0
-8 -6 -5 -4 -2 -47 -43 -38 -25 -41 -36 -23 -35 -22 -21 0
-2 -25 -23 -22 -21 -8 -6 -5 -4 -47 -43 -38 -41 -36 -35 0
-21 -22 -23 -25 -2 -35 -36 -38 -4 -41 -43 -5 -47 -6 -8 0
-21 -4 -38 -36 -35 -2 -25 -23 -22 -8 -6 -5 -47 -43 -41 0
-35 -36 -38 -4 -21 -41 -43 -5 -22 -47 -6 -23 -8 -25 -2 0
-35 -22 -5 -43 -41 -21 -4 -38 -36 -2 -25 -23 -8 -6 -47 0
-41 -43 -5 -22 -35 -47 -6 -23 -36 -8 -25 -38 -2 -4 -21 0
-41 -36 -23 -6 -47 -35 -22 -5 -43 -21 -4 -38 -2 -25 -8 0
-47 -6 -23 -36 -41 -8 -25 -38 -43 -2 -4 -5 -21 -22 -35 0
-8 -25 -38 -43 -47 -2 -4 -5 -6 -21 -22 -23 -35 -36 -41 0
-47 -43 -38 -25 -8 -41 -36 -23 -6 -35 -22 -5 -21 -4 -2 0
-2 -4 -5 -6 -9 -21 -22 -23 -26 -35 -36 -39 -41 -44 -48 0
-9 -6 -5 -4 -2 -48 -44 -39 -26 -41 -36 -23 -35 -22 -21 0
-2 -26 -23 -22 -21 -9 -6 -5 -4 -48 -44 -39 -41 -36 -35 0
-21 -22 -23 -26 -2 -35 -36 -39 -4 -41 -44 -5 -48 -6 -9 0
-21 -4 -39 -36 -35 -2 -26 -23 -22 -9 -6 -5 -48 -44 -41 0
-35 -36 -39 -4 -21 -41 -44 -5 -22 -48 -6 -23 -9 -26 -2 0
-35 -22 -5 -44 -41 -21 -4 -39 -36 -2 -26 -23 -9 -6 -48 0
-41 -44 -5 -22 -35 -48 -6 -23 -36 -9 -26 -39 -2 -4 -21 0
-41 -36 -23 -6 -48 -35 -22 -5 -44 -21 -4 -39 -2 -26 -9 0
-48 -6 -23 -36 -41 -9 -26 -39 -44 -2 -4 -5 -21 -22 -35 0
-9 -26 -39 -44 -48 -2 -4 -5 -6 -21 -22 -23 -35 -36 -41 0
-48 -44 -39 -26 -9 -41 -36 -23 -6 -35 -22 -5 -21 -4 -2 0
-2 -4 -5 -6 -10 -21 -22 -23 -27 -35 -36 -40 -41 -45 -49 0
-10 -6 -5 -4 -2 -49 -45 -40 -27 -41 -36 -23 -35 -22 -21 0
-2 -27 -23 -22 -21 -10 -6 -5 -4 -49 -45 -40 -41 -36 -35 0
-21 -22 -23 -27 -2 -35 -36 -40 -4 -41 -45 -5 -49 -6 -10 0
-21 -4 -40 -36 -35 -2 -27 -23 -22 -10 -6 -5 -49 -45 -41 0
-35 -36 -40 -4 -21 -41 -45 -5 -22 -49 -6 -23 -10 -27 -2 0
-35 -22 -5 -45 -41 -21 -4 -40 -36 -2 -27 -23 -10 -6 -49 0
-41 -45 -5 -22 -35 -49 -6 -23 -36 -10 -27 -40 -2 -4 -21 0
-41 -36 -23 -6 -49 -35 -22 -5 -45 -21 -4 -40 -2 -27 -10 0
-49 -6 -23 -36 -41 -10 -27 -40 -45 -2 -4 -5 -21 -22 -35 0
-10 -27 -40 -45 -49 -2 -4 -5 -6 -21 -22 -23 -35 -36 -41 0
-49 -45 -40 -27 -10 -41 -36 -23 -6 -35 -22 -5 -21 -4 -2 0
-2 -4 -5 -7 -8 -21 -22 -24 -25 -35 -37 -38 -42 -43 -50 0
-8 -7 -5 -4 -2 -50 -43 -38 -25 -42 -37 -24 -35 -22 -21 0
-2 -25 -24 -22 -21 -8 -7 -5 -4 -50 -43 -38 -42 -37 -35 0
-21 -22 -24 -25 -2 -35 -37 -38 -4 -42 -43 -5 -50 -7 -8 0
-21 -4 -38 -37 -35 -2 -25 -24 -22 -8 -7 -5 -50 -43 -42 0
-35 -37 -38 -4 -21 -42 -43 -5 -22 -50 -7 -24 -8 -25 -2 0
-35 -22 -5 -43 -42 -21 -4 -38 -37 -2 -25 -24 -8 -7 -50 0
-42 -43 -5 -22 -35 -50 -7 -24 -37 -8 -25 -38 -2 -4 -21 0
-42 -37 -24 -7 -50 -35 -22 -5 -43 -21 -4 -38 -2 -25 -8 0
-50 -7 -24 -37 -42 -8 -25 -38 -43 -2 -4 -5 -21 -22 -35 0
-8 -25 -38 -43 -50 -2 -4 -5 -7 -21 -22 -24 -35 -37 -42 0
-50 -43 -38 -25 -8 -42 -37 -24 -7 -35 -22 -5 -21 -4 -2 0
-2 -4 -5 -7 -9 -21 -22 -24 -26 -35 -37 -39 -42 -44 -51 0
-9 -7 -5 -4 -2 -51 -44 -39 -26 -42 -37 -24 -35 -22 -21 0
-2 -26 -24 -22 -21 -9 -7 -5 -4 -51 -44 -39 -42 -37 -35 0
-21 -22 -24 -26 -2 -35 -37 -39 -4 -42 -44 -5 -51 -7 -9 0
-21 -4 -39 -37 -35 -2 -26 -24 -22 -9 -7 -5 -51 -44 -42 0
-35 -37 -39 -4 -21 -42 -44 -5 -22 -51 -7 -24 -9 -26 -2 0
-35 -22 -5 -44 -42 -21 -4 -39 -37 -2 -26 -24 -9 -7 -51 0
-42 -44 -5 -22 -35 -51 -7 -24 -37 -9 -26 -39 -2 -4 -21 0
-42 -37 -24 -7 -51 -35 -22 -5 -44 -21 -4 -39 -2 -26 -9 0
-51 -7 -24 -37 -42 -9 -26 -39 -44 -2 -4 -5 -21 -22 -35 0
-9 -26 -39 -44 -51 -2 -4 -5 -7 -21 -22 -24 -35 -37 -42 0
-51 -44 -39 -26 -9 -42 -37 -24 -7 -35 -22 -5 -21 -4 -2 0
-2 -4 -5 -7 -10 -21 -22 -24 -27 -35 -37 -40 -42 -45 -52 0
-10 -7 -5 -4 -2 -52 -45 -40 -27 -42 -37 -24 -35 -22 -21 0
-2 -27 -24 -22 -21 -10 -7 -5 -4 -52 -45 -40 -42 -37 -35 0
-21 -22 -24 -27 -2 -35 -37 -40 -4 -42 -45 -5 -52 -7 -10 0
-21 -4 -40 -37 -35 -2 -27 -24 -22 -10 -7 -5 -52 -45 -42 0
-35 -37 -40 -4 -21 -42 -45 -5 -22 -52 -7 -24 -10 -27 -2 0
-35 -22 -5 -45 -42 -21 -4 -40 -37 -2 -27 -24 -10 -7 -52 0
-42 -45 -5 -22 -35 -52 -7 -24 -37 -10 -27 -40 -2 -4 -21 0
-42 -37 -24 -7 -52 -35 -22 -5 -45 -21 -4 -40 -2 -27 -10 0
-52 -7 -24 -37 -42 -10 -27 -40 -45 -2 -4 -5 -21 -22 -35 0
-10 -27 -40 -45 -52 -2 -4 -5 -7 -21 -22 -24 -35 -37 -42 0
-52 -45 -40 -27 -10 -42 -37 -24 -7 -35 -22 -5 -21 -4 -2 0
-2 -4 -5 -8 -9 -21 -22 -25 -26 -35 -38 -39 -43 -44 -53 0
-9 -8 -5 -4 -2 -53 -44 -39 -26 -43 -38 -25 -35 -22 -21 0
-2 -26 -25 -22 -21 -9 -8 -5 -4 -53 -44 -39 -43 -38 -35 0
-21 -22 -25 -26 -2 -35 -38 -39 -4 -43 -44 -5 -53 -8 -9 0
-21 -4 -39 -38 -35 -2 -26 -25 -22 -9 -8 -5 -53 -44 -43 0
-35 -38 -39 -4 -21 -43 -44 -5 -22 -53 -8 -25 -9 -26 -2 0
-35 -22 -5 -44 -43 -21 -4 -39 -38 -2 -26 -25 -9 -8 -53 0
-43 -44 -5 -22 -35 -53 -8 -25 -38 -9 -26 -39 -2 -4 -21 0
-43 -38 -25 -8 -53 -35 -22 -5 -44 -21 -4 -39 -2 -26 -9 0
-53 -8 -25 -38 -43 -9 -26 -39 -44 -2 -4 -5 -21 -22 -35 0
-9 -26 -39 -44 -53 -2 -4 -5 -8 -21 -22 -25 -35 -38 -43 0
-53 -44 -39 -26 -9 -43 -38 -25 -8 -35 -22 -5 -21 -4 -2 0
-2 -4 -5 -8 -10 -21 -22 -25 -27 -35 -38 -40 -43 -45 -54 0
-10 -8 -5 -4 -2 -54 -45 -40 -27 -43 -38 -25 -35 -22 -21 0
-2 -27 -25 -22 -21 -10 -8 -5 -4 -54 -45 -40 -43 -38 -35 0
-21 -22 -25 -27 -2 -35 -38 -40 -4 -43 -45 -5 -54 -8 -10 0
-21 -4 -40 -38 -35 -2 -27 -25 -22 -10 -8 -5 -54 -45 -43 0
-35 -38 -40 -4 -21 -43 -45 -5 -22 -54 -8 -25 -10 -27 -2 0
-35 -22 -5 -45 -43 -21 -4 -40 -38 -2 -27 -25 -10 -8 -54 0
-43 -45 -5 -22 -35 -54 -8 -25 -38 -10 -27 -40 -2 -4 -21 0
-43 -38 -25 -8 -54 -35 -22 -5 -45 -21 -4 -40 -2 -27 -10 0
-54 -8 -25 -38 -43 -10 -27 -40 -45 -2 -4 -5 -21 -22 -35 0
-10 -27 -40 -45 -54 -2 -4 -5 -8 -21 -22 -25 -35 -38 -43 0
-54 -45 -40 -27 -10 -43 -38 -25 -8 -35 -22 -5 -21 -4 -2 0
-2 -4 -5 -9 -10 -21 -22 -26 -27 -35 -39 -40 -44 -45 -55 0
-10 -9 -5 -4 -2 -55 -45 -40 -27 -44 -39 -26 -35 -22 -21 0
-2 -27 -26 -22 -21 -10 -9 -5 -4 -55 -45 -40 -44 -39 -35 0
-21 -22 -26 -27 -2 -35 -39 -40 -4 -44 -45 -5 -55 -9 -10 0
-21 -4 -40 -39 -35 -2 -27 -26 -22 -10 -9 -5 -55 -45 -44 0
-35 -39 -40 -4 -21 -44 -45 -5 -22 -55 -9 -26 -10 -27 -2 0
-35 -22 -5 -45 -44 -21 -4 -40 -39 -2 -27 -26 -10 -9 -55 0
-44 -45 -5 -22 -35 -55 -9 -26 -39 -10 -27 -40 -2 -4 -21 0
-44 -39 -26 -9 -55 -35 -22 -5 -45 -21 -4 -40 -2 -27 -10 0
-55 -9 -26 -39 -44 -10 -27 -40 -45 -2 -4 -5 -21 -22 -35 0
-10 -27 -40 -45 -55 -2 -4 -5 -9 -21 -22 -26 -35 -39 -44 0
-55 -45 -40 -27 -10 -44 -39 -26 -9 -35 -22 -5 -21 -4 -2 0
-2 -4 -6 -7 -8 -21 -23 -24 -25 -36 -37 -38 -46 -47 -50 0
-8 -7 -6 -4 -2 -50 -47 -38 -25 -46 -37 -24 -36 -23 -21 0
-2 -25 -24 -23 -21 -8 -7 -6 -4 -50 -47 -38 -46 -37 -36 0
-21 -23 -24 -25 -2 -36 -37 -38 -4 -46 -47 -6 -50 -7 -8 0
-21 -4 -38 -37 -36 -2 -25 -24 -23 -8 -7 -6 -50 -47 -46 0
-36 -37 -38 -4 -21 -46 -47 -6 -23 -50 -7 -24 -8 -25 -2 0
-36 -23 -6 -47 -46 -21 -4 -38 -37 -2 -25 -24 -8 -7 -50 0
-46 -47 -6 -23 -36 -50 -7 -24 -37 -8 -25 -38 -2 -4 -21 0
-46 -37 -24 -7 -50 -36 -23 -6 -47 -21 -4 -38 -2 -25 -8 0
-50 -7 -24 -37 -46 -8 -25 -38 -47 -2 -4 -6 -21 -23 -36 0
-8 -25 -38 -47 -50 -2 -4 -6 -7 -21 -23 -24 -36 -37 -46 0
-50 -47 -38 -25 -8 -46 -37 -24 -7 -36 -23 -6 -21 -4 -2 0
-2 -4 -6 -7 -9 -21 -23 -24 -26 -36 -37 -39 -46 -48 -51 0
-9 -7 -6 -4 -2 -51 -48 -39 -26 -46 -37 -24 -36 -23 -21 0
-2 -26 -24 -23 -21 -9 -7 -6 -4 -51 -48 -39 -46 -37 -36 0
-21 -23 -24 -26 -2 -36 -37 -39 -4 -46 -48 -6 -51 -7 -9 0
-21 -4 -39 -37 -36 -2 -26 -24 -23 -9 -7 -6 -51 -48 -46 0
-36 -37 -39 -4 -21 -46 -48 -6 -23 -51 -7 -24 -9 -26 -2 0
-36 -23 -6 -48 -46 -21 -4 -39 -37 -2 -26 -24 -9 -7 -51 0
-46 -48 -6 -23 -36 -51 -7 -24 -37 -9 -26 -39 -2 -4 -21 0
-46 -37 -24 -7 -51 -36 -23 -6 -48 -21 -4 -39 -2 -26 -9 0
-51 -7 -24 -37 -46 -9 -26 -39 -48 -2 -4 -6 -21 -23 -36 0
-9 -26 -39 -48 -51 -2 -4 -6 -7 -21 -23 -24 -36 -37 -46 0
-51 -48 -39 -26 -9 -46 -37 -24 -7 -36 -23 -6 -21 -4 -2 0
-2 -4 -6 -7 -10 -21 -23 -24 -27 -36 -37 -40 -46 -49 -52 0
-10 -7 -6 -4 -2 -52 -49 -40 -27 -46 -37 -24 -36 -23 -21 0
-2 -27 -24 -23 -21 -10 -7 -6 -4 -52 -49 -40 -46 -37 -36 0
-21 -23 -24 -27 -2 -36 -37 -40 -4 -46 -49 -6 -52 -7 -10 0
-21 -4 -40 -37 -36 -2 -27 -24 -23 -10 -7 -6 -52 -49 -46 0
-36 -37 -40 -4 -21 -46 -49 -6 -23 -52 -7 -24 -10 -27 -2 0
-36 -23 -6 -49 -46 -21 -4 -40 -37 -2 -27 -24 -10 -7 -52 0
-46 -49 -6 -23 -36 -52 -7 -24 -37 -10 -27 -40 -2 -4 -21 0
-46 -37 -24 -7 -52 -36 -23 -6 -49 -21 -4 -40 -2 -27 -10 0
-52 -7 -24 -37 -46 -10 -27 -40 -49 -2 -4 -6 -21 -23 -36 0
-10 -27 -40 -49 -52 -2 -4 -6 -7 -21 -23 -24 -36 -37 -46 0
-52 -49 -40 -27 -10 -46 -37 -24 -7 -36 -23 -6 -21 -4 -2 0
-2 -4 -6 -8 -9 -21 -23 -25 -26 -36 -38 -39 -47 -48 -53 0
-9 -8 -6 -4 -2 -53 -48 -39 -26 -47 -38 -25 -36 -23 -21 0
-2 -26 -25 -23 -21 -9 -8 -6 -4 -53 -48 -39 -47 -38 -36 0
-21 -23 -25 -26 -2 -36 -38 -39 -4 -47 -48 -6 -53 -8 -9 0
-21 -4 -39 -38 -36 -2 -26 -25 -23 -9 -8 -6 -53 -48 -47 0
-36 -38 -39 -4 -21 -47 -48 -6 -23 -53 -8 -25 -9 -26 -2 0
-36 -23 -6 -48 -47 -21 -4 -39 -38 -2 -26 -25 -9 -8 -53 0
-47 -48 -6 -23 -36 -53 -8 -25 -38 -9 -26 -39 -2 -4 -21 0
-47 -38 -25 -8 -53 -36 -23 -6 -48 -21 -4 -39 -2 -26 -9 0
-53 -8 -25 -38 -47 -9 -26 -39 -48 -2 -4 -6 -21 -23 -36 0
-9 -26 -39 -48 -53 -2 -4 -6 -8 -21 -23 -25 -36 -38 -47 0
-53 -48 -39 -26 -9 -47 -38 -25 -8 -36 -23 -6 -21 -4 -2 0
-2 -4 -6 -8 -10 -21 -23 -25 -27 -36 -38 -40 -47 -49 -54 0
-10 -8 -6 -4 -2 -54 -49 -40 -27 -47 -38 -25 -36 -23 -21 0
-2 -27 -25 -23 -21 -10 -8 -6 -4 -54 -49 -40 -47 -38 -36 0
-21 -23 -25 -27 -2 -36 -38 -40 -4 -47 -49 -6 -54 -8 -10 0
-21 -4 -40 -38 -36 -2 -27 -25 -23 -10 -8 -6 -54 -49 -47 0
-36 -38 -40 -4 -21 -47 -49 -6 -23 -54 -8 -25 -10 -27 -2 0
-36 -23 -6 -49 -47 -21 -4 -40 -38 -2 -27 -25 -10 -8 -54 0
-47 -49 -6 -23 -36 -54 -8 -25 -38 -10 -27 -40 -2 -4 -21 0
-47 -38 -25 -8 -54 -36 -23 -6 -49 -21 -4 -40 -2 -27 -10 0
-54 -8 -25 -38 -47 -10 -27 -40 -49 -2 -4 -6 -21 -23 -36 0
-10 -27 -40 -49 -54 -2 -4 -6 -8 -21 -23 -25 -36 -38 -47 0
-54 -49 -40 -27 -10 -47 -38 -25 -8 -36 -23 -6 -21 -4 -2 0
-2 -4 -6 -9 -10 -21 -23 -26 -27 -36 -39 -40 -48 -49 -55 0
-10 -9 -6 -4 -2 -55 -49 -40 -27 -48 -39 -26 -36 -23 -21 0
-2 -27 -26 -23 -21 -10 -9 -6 -4 -55 -49 -40 -48 -39 -36 0
-21 -23 -26 -27 -2 -36 -39 -40 -4 -48 -49 -6 -55 -9 -10 0
-21 -4 -40 -39 -36 -2 -27 -26 -23 -10 -9 -6 -55 -49 -48 0
-36 -39 -40 -4 -21 -48 -49 -6 -23 -55 -9 -26 -10 -27 -2 0
-36 -23 -6 -49 -48 -21 -4 -40 -39 -2 -27 -26 -10 -9 -55 0
-48 -49 -6 -23 -36 -55 -9 -26 -39 -10 -27 -40 -2 -4 -21 0
-48 -39 -26 -9 -55 -36 -23 -6 -49 -21 -4 -40 -2 -27 -10 0
-55 -9 -26 -39 -48 -10 -27 -40 -49 -2 -4 -6 -21 -23 -36 0
-10 -27 -40 -49 -55 -2 -4 -6 -9 -21 -23 -26 -36 -39 -48 0
-55 -49 -40 -27 -10 -48 -39 -26 -9 -36 -23 -6 -21 -4 -2 0
-2 -4 -7 -8 -9 -21 -24 -25 -26 -37 -38 -39 -50 -51 -53 0
-9 -8 -7 -4 -2 -53 -51 -39 -26 -50 -38 -25 -37 -24 -21 0
-2 -26 -25 -24 -21 -9 -8 -7 -4 -53 -51 -39 -50 -38 -37 0
-21 -24 -25 -26 -2 -37 -38 -39 -4 -50 -51 -7 -53 -8 -9 0
-21 -4 -39 -38 -37 -2 -26 -25 -24 -9 -8 -7 -53 -51 -50 0
-37 -38 -39 -4 -21 -50 -51 -7 -24 -53 -8 -25 -9 -26 -2 0
-37 -24 -7 -51 -50 -21 -4 -39 -38 -2 -26 -25 -9 -8 -53 0
-50 -51 -7 -24 -37 -53 -8 -25 -38 -9 -26 -39 -2 -4 -21 0
-50 -38 -25 -8 -53 -37 -24 -7 -51 -21 -4 -39 -2 -26 -9 0
-53 -8 -25 -38 -50 -9 -26 -39 -51 -2 -4 -7 -21 -24 -37 0
-9 -26 -39 -51 -53 -2 -4 -7 -8 -21 -24 -25 -37 -38 -50 0
-53 -51 -39 -26 -9 -50 -38 -25 -8 -37 -24 -7 -21 -4 -2 0
-2 -4 -7 -8 -10 -21 -24 -25 -27 -37 -38 -40 -50 -52 -54 0
-10 -8 -7 -4 -2 -54 -52 -40 -27 -50 -38 -25 -37 -24 -21 0
-2 -27 -25 -24 -21 -10 -8 -7 -4 -54 -52 -40 -50 -38 -37 0
-21 -24 -25 -27 -2 -37 -38 -40 -4 -50 -52 -7 -54 -8 -10 0
-21 -4 -40 -38 -37 -2 -27 -25 -24 -10 -8 -7 -54 -52 -50 0
-37 -38 -40 -4 -21 -50 -52 -7 -24 -54 -8 -25 -10 -27 -2 0
-37 -24 -7 -52 -50 -21 -4 -40 -38 -2 -27 -25 -10 -8 -54 0
-50 -52 -7 -24 -37 -54 -8 -25 -38 -10 -27 -40 -2 -4 -21 0
-50 -38 -25 -8 -54 -37 -24 -7 -52 -21 -4 -40 -2 -27 -10 0
-54 -8 -25 -38 -50 -10 -27 -40 -52 -2 -4 -7 -21 -24 -37 0
-10 -27 -40 -52 -54 -2 -4 -7 -8 -21 -24 -25 -37 -38 -50 0
-54 -52 -40 -27 -10 -50 -38 -25 -8 -37 -24 -7 -21 -4 -2 0
-2 -4 -7 -9 -10 -21 -24 -26 -27 -37 -39 -40 -51 -52 -55 0
-10 -9 -7 -4 -2 -55 -52 -40 -27 -51 -39 -26 -37 -24 -21 0
-2 -27 -26 -24 -21 -10 -9 -7 -4 -55 -52 -40 -51 -39 -37 0
-21 -24 -26 -27 -2 -37 -39 -40 -4 -51 -52 -7 -55 -9 -10 0
-21 -4 -40 -39 -37 -2 -27 -26 -24 -10 -9 -7 -55 -52 -51 0
-37 -39 -40 -4 -21 -51 -52 -7 -24 -55 -9 -26 -10 -27 -2 0
-37 -24 -7 -52 -51 -21 -4 -40 -39 -2 -27 -26 -10 -9 -55 0
-51 -52 -7 -24 -37 -55 -9 -26 -39 -10 -27 -40 -2 -4 -21 0
-51 -39 -26 -9 -55 -37 -24 -7 -52 -21 -4 -40 -2 -27 -10 0
-55 -9 -26 -39 -51 -10 -27 -40 -52 -2 -4 -7 -21 -24 -37 0
-10 -27 -40 -52 -55 -2 -4 -7 -9 -21 -24 -26 -37 -39 -51 0
-55 -52 -40 -27 -10 -51 -39 -26 -9 -37 -24 -7 -21 -4 -2 0
-2 -4 -8 -9 -10 -21 -25 -26 -27 -38 -39 -40 -53 -54 -55 0
-10 -9 -8 -4 -2 -55 -54 -40 -27 -53 -39 -26 -38 -25 -21 0
-2 -27 -26 -25 -21 -10 -9 -8 -4 -55 -54 -40 -53 -39 -38 0
-21 -25 -26 -27 -2 -38 -39 -40 -4 -53 -54 -8 -55 -9 -10 0
-21 -4 -40 -39 -38 -2 -27 -26 -25 -10 -9 -8 -55 -54 -53 0
-38 -39 -40 -4 -21 -53 -54 -8 -25 -55 -9 -26 -10 -27 -2 0
-38 -25 -8 -54 -53 -21 -4 -40 -39 -2 -27 -26 -10 -9 -55 0
-53 -54 -8 -25 -38 -55 -9 -26 -39 -10 -27 -40 -2 -4 -21 0
-53 -39 -26 -9 -55 -38 -25 -8 -54 -21 -4 -40 -2 -27 -10 0
-55 -9 -26 -39 -53 -10 -27 -40 -54 -2 -4 -8 -21 -25 -38 0
-10 -27 -40 -54 -55 -2 -4 -8 -9 -21 -25 -26 -38 -39 -53 0
-55 -54 -40 -27 -10 -53 -39 -26 -9 -38 -25 -8 -21 -4 -2 0
-2 -5 -6 -7 -8 -22 -23 -24 -25 -41 -42 -43 -46 -47 -50 0
-8 -7 -6 -5 -2 -50 -47 -43 -25 -46 -42 -24 -41 -23 -22 0
-2 -25 -24 -23 -22 -8 -7 -6 -5 -50 -47 -43 -46 -42 -41 0
-22 -23 -24 -25 -2 -41 -42 -43 -5 -46 -47 -6 -50 -7 -8 0
-22 -5 -43 -42 -41 -2 -25 -24 -23 -8 -7 -6 -50 -47 -46 0
-41 -42 -43 -5 -22 -46 -47 -6 -23 -50 -7 -24 -8 -25 -2 0
-41 -23 -6 -47 -46 -22 -5 -43 -42 -2 -25 -24 -8 -7 -50 0
-46 -47 -6 -23 -41 -50 -7 -24 -42 -8 -25 -43 -2 -5 -22 0
-46 -42 -24 -7 -50 -41 -23 -6 -47 -22 -5 -43 -2 -25 -8 0
-50 -7 -24 -42 -46 -8 -25 -43 -47 -2 -5 -6 -22 -23 -41 0
-8 -25 -43 -47 -50 -2 -5 -6 -7 -22 -23 -24 -41 -42 -46 0
-50 -47 -43 -25 -8 -46 -42 -24 -7 -41 -23 -6 -22 -5 -2 0
-2 -5 -6 -7 -9 -22 -23 -24 -26 -41 -42 -44 -46 -48 -51 0
-9 -7 -6 -5 -2 -51 -48 -44 -26 -46 -42 -24 -41 -23 -22 0
-2 -26 -24 -23 -22 -9 -7 -6 -5 -51 -48 -44 -46 -42 -41 0
-22 -23 -24 -26 -2 -41 -42 -44 -5 -46 -48 -6 -51 -7 -9 0
-22 -5 -44 -42 -41 -2 -26 -24 -23 -9 -7 -6 -51 -48 -46 0
-41 -42 -44 -5 -22 -46 -48 -6 -23 -51 -7 -24 -9 -26 -2 0
-41 -23 -6 -48 -46 -22 -5 -44 -42 -2 -26 -24 -9 -7 -51 0
-46 -48 -6 -23 -41 -51 -7 -24 -42 -9 -26 -44 -2 -5 -22 0
-46 -42 -24 -7 -51 -41 -23 -6 -48 -22 -5 -44 -2 -26 -9 0
-51 -7 -24 -42 -46 -9 -26 -44 -48 -2 -5 -6 -22 -23 -41 0
-9 -26 -44 -48 -51 -2 -5 -6 -7 -22 -23 -24 -41 -42 -46 0
-51 -48 -44 -26 -9 -46 -42 -24 -7 -41 -23 -6 -22 -5 -2 0
-2 -5 -6 -7 -10 -22 -23 -24 -27 -41 -42 -45 -46 -49 -52 0
-10 -7 -6 -5 -2 -52 -49 -45 -27 -46 -42 -24 -41 -23 -22 0
-2 -27 -24 -23 -22 -10 -7 -6 -5 -52 -49 -45 -46 -42 -41 0
-22 -23 -24 -27 -2 -41 -42 -45 -5 -46 -49 -6 -52 -7 -10 0
-22 -5 -45 -42 -41 -2 -27 -24 -23 -10 -7 -6 -52 -49 -46 0
-41 -42 -45 -5 -22 -46 -49 -6 -23 -52 -7 -24 -10 -27 -2 0
-41 -23 -6 -49 -46 -22 -5 -45 -42 -2 -27 -24 -10 -7 -52 0
-46 -49 -6 -23 -41 -52 -7 -24 -42 -10 -27 -45 -2 -5 -22 0
-46 -42 -24 -7 -52 -41 -23 -6 -49 -22 -5 -45 -2 -27 -10 0
-52 -7 -24 -42 -46 -10 -27 -45 -49 -2 -5 -6 -22 -23 -41 0
-10 -27 -45 -49 -52 -2 -5 -6 -7 -22 -23 -24 -41 -42 -46 0
-52 -49 -45 -27 -10 -46 -42 -24 -7 -41 -23 -6 -22 -5 -2 0
-2 -5 -6 -8 -9 -22 -23 -25 -26 -41 -43 -44 -47 -48 -53 0
-9 -8 -6 -5 -2 -53 -48 -44 -26 -47 -43 -25 -41 -23 -22 0
-2 -26 -25 -23 -22 -9 -8 -6 -5 -53 -48 -44 -47 -43 -41 0
-22 -23 -25 -26 -2 -41 -43 -44 -5 -47 -48 -6 -53 -8 -9 0
-22 -5 -44 -43 -41 -2 -26 -25 -23 -9 -8 -6 -53 -48 -47 0
-41 -43 -44 -5 -22 -47 -48 -6 -23 -53 -8 -25 -9 -26 -2 0
-41 -23 -6 -48 -47 -22 -5 -44 -43 -2 -26 -25 -9 -8 -53 0
-47 -48 -6 -23 -41 -53 -8 -25 -43 -9 -26 -44 -2 -5 -22 0
-47 -43 -25 -8 -53 -41 -23 -6 -48 -22 -5 -44 -2 -26 -9 0
-53 -8 -25 -43 -47 -9 -26 -44 -48 -2 -5 -6 -22 -23 -41 0
-9 -26 -44 -48 -53 -2 -5 -6 -8 -22 -23 -25 -41 -43 -47 0
-53 -48 -44 -26 -9 -47 -43 -25 -8 -41 -23 -6 -22 -5 -2 0
-2 -5 -6 -8 -10 -22 -23 -25 -27 -41 -43 -45 -47 -49 -54 0
-10 -8 -6 -5 -2 -54 -49 -45 -27 -47 -43 -25 -41 -23 -22 0
-2 -27 -25 -23 -22 -10 -8 -6 -5 -54 -49 -45 -47 -43 -41 0
-22 -23 -25 -27 -2 -41 -43 -45 -5 -47 -49 -6 -54 -8 -10 0
-22 -5 -45 -43 -41 -2 -27 -25 -23 -10 -8 -6 -54 -49 -47 0
-41 -43 -45 -5 -22 -47 -49 -6 -23 -54 -8 -25 -10 -27 -2 0
-41 -23 -6 -49 -47 -22 -5 -45 -43 -2 -27 -25 -10 -8 -54 0
-47 -49 -6 -23 -41 -54 -8 -25 -43 -10 -27 -45 -2 -5 -22 0
-47 -43 -25 -8 -54 -41 -23 -6 -49 -22 -5 -45 -2 -27 -10 0
-54 -8 -25 -43 -47 -10 -27 -45 -49 -2 -5 -6 -22 -23 -41 0
-10 -27 -45 -49 -54 -2 -5 -6 -8 -22 -23 -25 -41 -43 -47 0
-54 -49 -45 -27 -10 -47 -43 -25 -8 -41 -23 -6 -22 -5 -2 0
-2 -5 -6 -9 -10 -22 -23 -26 -27 -41 -44 -45 -48 -49 -55 0
-10 -9 -6 -5 -2 -55 -49 -45 -27 -48 -44 -26 -41 -23 -22 0
-2 -27 -26 -23 -22 -10 -9 -6 -5 -55 -49 -45 -48 -44 -41 0
-22 -23 -26 -27 -2 -41 -44 -45 -5 -48 -49 -6 -55 -9 -10 0
-22 -5 -45 -44 -41 -2 -27 -26 -23 -10 -9 -6 -55 -49 -48 0
-41 -44 -45 -5 -22 -48 -49 -6 -23 -55 -9 -26 -10 -27 -2 0
-41 -23 -6 -49 -48 -22 -5 -45 -44 -2 -27 -26 -10 -9 -55 0
-48 -49 -6 -23 -41 -55 -9 -26 -44 -10 -27 -45 -2 -5 -22 0
-48 -44 -26 -9 -55 -41 -23 -6 -49 -22 -5 -45 -2 -27 -10 0
-55 -9 -26 -44 -48 -10 -27 -45 -49 -2 -5 -6 -22 -23 -41 0
-10 -27 -45 -49 -55 -2 -5 -6 -9 -22 -23 -26 -41 -44 -48 0
-55 -49 -45 -27 -10 -48 -44 -26 -9 -41 -23 -6 -22 -5 -2 0
-2 -5 -7 -8 -9 -22 -24 -25 -26 -42 -43 -44 -50 -51 -53 0
-9 -8 -7 -5 -2 -53 -51 -44 -26 -50 -43 -25 -42 -24 -22 0
-2 -26 -25 -24 -22 -9 -8 -7 -5 -53 -51 -44 -50 -43 -42 0
-22 -24 -25 -26 -2 -42 -43 -44 -5 -50 -51 -7 -53 -8 -9 0
-22 -5 -44 -43 -42 -2 -26 -25 -24 -9 -8 -7 -53 -51 -50 0
-42 -43 -44 -5 -22 -50 -51 -7 -24 -53 -8 -25 -9 -26 -2 0
-42 -24 -7 -51 -50 -22 -5 -44 -43 -2 -26 -25 -9 -8 -53 0
-50 -51 -7 -24 -42 -53 -8 -25 -43 -9 -26 -44 -2 -5 -22 0
-50 -43 -25 -8 -53 -42 -24 -7 -51 -22 -5 -44 -2 -26 -9 0
-53 -8 -25 -43 -50 -9 -26 -44 -51 -2 -5 -7 -22 -24 -42 0
-9 -26 -44 -51 -53 -2 -5 -7 -8 -22 -24 -25 -42 -43 -50 0
-53 -51 -44 -26 -9 -50 -43 -25 -8 -42 -24 -7 -22 -5 -2 0
-2 -5 -7 -8 -10 -22 -24 -25 -27 -42 -43 -45 -50 -52 -54 0
-10 -8 -7 -5 -2 -54 -52 -45 -27 -50 -43 -25 -42 -24 -22 0
-2 -27 -25 -24 -22 -10 -8 -7 -5 -54 -52 -45 -50 -43 -42 0
-22 -24 -25 -27 -2 -42 -43 -45 -5 -50 -52 -7 -54 -8 -10 0
-22 -5 -45 -43 -42 -2 -27 -25 -24 -10 -8 -7 -54 -52 -50 0
-42 -43 -45 -5 -22 -50 -52 -7 -24 -54 -8 -25 -10 -27 -2 0
-42 -24 -7 -52 -50 -22 -5 -45 -43 -2 -27 -25 -10 -8 -54 0
-50 -52 -7 -24 -42 -54 -8 -25 -43 -10 -27 -45 -2 -5 -22 0
-50 -43 -25 -8 -54 -42 -24 -7 -52 -22 -5 -45 -2 -27 -10 0
-54 -8 -25 -43 -50 -10 -27 -45 -52 -2 -5 -7 -22 -24 -42 0
-10 -27 -45 -52 -54 -2 -5 -7 -8 -22 -24 -25 -42 -43 -50 0
-54 -52 -45 -27 -10 -50 -43 -25 -8 -42 -24 -7 -22 -5 -2 0
-2 -5 -7 -9 -10 -22 -24 -26 -27 -42 -44 -45 -51 -52 -55 0
-10 -9 -7 -5 -2 -55 -52 -45 -27 -51 -44 -26 -42 -24 -22 0
-2 -27 -26 -24 -22 -10 -9 -7 -5 -55 -52 -45 -51 -44 -42 0
-22 -24 -26 -27 -2 -42 -44 -45 -5 -51 -52 -7 -55 -9 -10 0
-22 -5 -45 -44 -42 -2 -27 -26 -24 -10 -9 -7 -55 -52 -51 0
-42 -44 -45 -5 -22 -51 -52 -7 -24 -55 -9 -26 -10 -27 -2 0
-42 -24 -7 -52 -51 -22 -5 -45 -44 -2 -27 -26 -10 -9 -55 0
-51 -52 -7 -24 -42 -55 -9 -26 -44 -10 -27 -45 -2 -5 -22 0
-51 -44 -26 -9 -55 -42 -24 -7 -52 -22 -5 -45 -2 -27 -10 0
-55 -9 -26 -44 -51 -10 -27 -45 -52 -2 -5 -7 -22 -24 -42 0
-10 -27 -45 -52 -55 -2 -5 -7 -9 -22 -24 -26 -42 -44 -51 0
-55 -52 -45 -27 -10 -51 -44 -26 -9 -42 -24 -7 -22 -5 -2 0
-2 -5 -8 -9 -10 -22 -25 -26 -27 -43 -44 -45 -53 -54 -55 0
-10 -9 -8 -5 -2 -55 -54 -45 -27 -53 -44 -26 -43 -25 -22 0
-2 -27 -26 -25 -22 -10 -9 -8 -5 -55 -54 -45 -53 -44 -43 0
-22 -25 -26 -27 -2 -43 -44 -45 -5 -53 -54 -8 -55 -9 -10 0
-22 -5 -45 -44 -43 -2 -27 -26 -25 -10 -9 -8 -55 -54 -53 0
-43 -44 -45 -5 -22 -53 -54 -8 -25 -55 -9 -26 -10 -27 -2 0
-43 -25 -8 -54 -53 -22 -5 -45 -44 -2 -27 -26 -10 -9 -55 0
-53 -54 -8 -25 -43 -55 -9 -26 -44 -10 -27 -45 -2 -5 -22 0
-53 -44 -26 -9 -55 -43 -25 -8 -54 -22 -5 -45 -2 -27 -10 0
-55 -9 -26 -44 -53 -10 -27 -45 -54 -2 -5 -8 -22 -25 -43 0
-10 -27 -45 -54 -55 -2 -5 -8 -9 -22 -25 -26 -43 -44 -53 0
-55 -54 -45 -27 -10 -53 -44 -26 -9 -43 -25 -8 -22 -5 -2 0
-2 -6 -7 -8 -9 -23 -24 -25 -26 -46 -47 -48 -50 -51 -53 0
-9 -8 -7 -6 -2 -53 -51 -48 -26 -50 -47 -25 -46 -24 -23 0
-2 -26 -25 -24 -23 -9 -8 -7 -6 -53 -51 -48 -50 -47 -46 0
-23 -24 -25 -26 -2 -46 -47 -48 -6 -50 -51 -7 -53 -8 -9 0
-23 -6 -48 -47 -46 -2 -26 -25 -24 -9 -8 -7 -53 -51 -50 0
-46 -47 -48 -6 -23 -50 -51 -7 -24 -53 -8 -25 -9 -26 -2 0
-46 -24 -7 -51 -50 -23 -6 -48 -47 -2 -26 -25 -9 -8 -53 0
-50 -51 -7 -24 -46 -53 -8 -25 -47 -9 -26 -48 -2 -6 -23 0
-50 -47 -25 -8 -53 -46 -24 -7 -51 -23 -6 -48 -2 -26 -9 0
-53 -8 -25 -47 -50 -9 -26 -48 -51 -2 -6 -7 -23 -24 -46 0
-9 -26 -48 -51 -53 -2 -6 -7 -8 -23 -24 -25 -46 -47 -50 0
-53 -51 -48 -26 -9 -50 -47 -25 -8 -46 -24 -7 -23 -6 -2 0
-2 -6 -7 -8 -10 -23 -24 -25 -27 -46 -47 -49 -50 -52 -54 0
-10 -8 -7 -6 -2 -54 -52 -49 -27 -50 -47 -25 -46 -24 -23 0
-2 -27 -25 -24 -23 -10 -8 -7 -6 -54 -52 -49 -50 -47 -46 0
-23 -24 -25 -27 -2 -46 -47 -49 -6 -50 -52 -7 -54 -8 -10 0
-23 -6 -49 -47 -46 -2 -27 -25 -24 -10 -8 -7 -54 -52 -50 0
-46 -47 -49 -6 -23 -50 -52 -7 -24 -54 -8 -25 -10 -27 -2 0
-46 -24 -7 -52 -50 -23 -6 -49 -47 -2 -27 -25 -10 -8 -54 0
-50 -52 -7 -24 -46 -54 -8 -25 -47 -10 -27 -49 -2 -6 -23 0
-50 -47 -25 -8 -54 -46 -24 -7 -52 -23 -6 -49 -2 -27 -10 0
-54 -8 -25 -47 -50 -10 -27 -49 -52 -2 -6 -7 -23 -24 -46 0
-10 -27 -49 -52 -54 -2 -6 -7 -8 -23 -24 -25 -46 -47 -50 0
-54 -52 -49 -27 -10 -50 -47 -25 -8 -46 -24 -7 -23 -6 -2 0
-2 -6 -7 -9 -10 -23 -24 -26 -27 -46 -48 -49 -51 -52 -55 0
-10 -9 -7 -6 -2 -55 -52 -49 -27 -51 -48 -26 -46 -24 -23 0
-2 -27 -26 -24 -23 -10 -9 -7 -6 -55 -52 -49 -51 -48 -46 0
-23 -24 -26 -27 -2 -46 -48 -49 -6 -51 -52 -7 -55 -9 -10 0
-23 -6 -49 -48 -46 -2 -27 -26 -24 -10 -9 -7 -55 -52 -51 0
-46 -48 -49 -6 -23 -51 -52 -7 -24 -55 -9 -26 -10 -27 -2 0
-46 -24 -7 -52 -51 -23 -6 -49 -48 -2 -27 -26 -10 -9 -55 0
-51 -52 -7 -24 -46 -55 -9 -26 -48 -10 -27 -49 -2 -6 -23 0
-51 -48 -26 -9 -55 -46 -24 -7 -52 -23 -6 -49 -2 -27 -10 0
-55 -9 -26 -48 -51 -10 -27 -49 -52 -2 -6 -7 -23 -24 -46 0
-10 -27 -49 -52 -55 -2 -6 -7 -9 -23 -24 -26 -46 -48 -51 0
-55 -52 -49 -27 -10 -51 -48 -26 -9 -46 -24 -7 -23 -6 -2 0
-2 -6 -8 -9 -10 -23 -25 -26 -27 -47 -48 -49 -53 -54 -55 0
-10 -9 -8 -6 -2 -55 -54 -49 -27 -53 -48 -26 -47 -25 -23 0
-2 -27 -26 -25 -23 -10 -9 -8 -6 -55 -54 -49 -53 -48 -47 0
-23 -25 -26 -27 -2 -47 -48 -49 -6 -53 -54 -8 -55 -9 -10 0
-23 -6 -49 -48 -47 -2 -27 -26 -25 -10 -9 -8 -55 -54 -53 0
-47 -48 -49 -6 -23 -53 -54 -8 -25 -55 -9 -26 -10 -27 -2 0
-47 -25 -8 -54 -53 -23 -6 -49 -48 -2 -27 -26 -10 -9 -55 0
-53 -54 -8 -25 -47 -55 -9 -26 -48 -10 -27 -49 -2 -6 -23 0
-53 -48 -26 -9 -55 -47 -25 -8 -54 -23 -6 -49 -2 -27 -10 0
-55 -9 -26 -48 -53 -10 -27 -49 -54 -2 -6 -8 -23 -25 -47 0
-10 -27 -49 -54 -55 -2 -6 -8 -9 -23 -25 -26 -47 -48 -53 0
-55 -54 -49 -27 -10 -53 -48 -26 -9 -47 -25 -8 -23 -6 -2 0
-2 -7 -8 -9 -10 -24 -25 -26 -27 -50 -51 -52 -53 -54 -55 0
-10 -9 -8 -7 -2 -55 -54 -52 -27 -53 -51 -26 -50 -25 -24 0
-2 -27 -26 -25 -24 -10 -9 -8 -7 -55 -54 -52 -53 -51 -50 0
-24 -25 -26 -27 -2 -50 -51 -52 -7 -53 -54 -8 -55 -9 -10 0
-24 -7 -52 -51 -50 -2 -27 -26 -25 -10 -9 -8 -55 -54 -53 0
-50 -51 -52 -7 -24 -53 -54 -8 -25 -55 -9 -26 -10 -27 -2 0
-50 -25 -8 -54 -53 -24 -7 -52 -51 -2 -27 -26 -10 -9 -55 0
-53 -54 -8 -25 -50 -55 -9 -26 -51 -10 -27 -52 -2 -7 -24 0
-53 -51 -26 -9 -55 -50 -25 -8 -54 -24 -7 -52 -2 -27 -10 0
-55 -9 -26 -51 -53 -10 -27 -52 -54 -2 -7 -8 -24 -25 -50 0
-10 -27 -52 -54 -55 -2 -7 -8 -9 -24 -25 -26 -50 -51 -53 0
-55 -54 -52 -27 -10 -53 -51 -26 -9 -50 -25 -8 -24 -7 -2 0
-3 -4 -5 -6 -7 -28 -29 -30 -31 -35 -36 -37 -41 -42 -46 0
-7 -6 -5 -4 -3 -46 -42 -37 -31 -41 -36 -30 -35 -29 -28 0
-3 -31 -30 -29 -28 -7 -6 -5 -4 -46 -42 -37 -41 -36 -35 0
-28 -29 -30 -31 -3 -35 -36 -37 -4 -41 -42 -5 -46 -6 -7 0
-28 -4 -37 -36 -35 -3 -31 -30 -29 -7 -6 -5 -46 -42 -41 0
-35 -36 -37 -4 -28 -41 -42 -5 -29 -46 -6 -30 -7 -31 -3 0
-35 -29 -5 -42 -41 -28 -4 -37 -36 -3 -31 -30 -7 -6 -46 0
-41 -42 -5 -29 -35 -46 -6 -30 -36 -7 -31 -37 -3 -4 -28 0
-41 -36 -30 -6 -46 -35 -29 -5 -42 -28 -4 -37 -3 -31 -7 0
-46 -6 -30 -36 -41 -7 -31 -37 -42 -3 -4 -5 -28 -29 -35 0
-7 -31 -37 -42 -46 -3 -4 -5 -6 -28 -29 -30 -35 -36 -41 0
-46 -42 -37 -31 -7 -41 -36 -30 -6 -35 -29 -5 -28 -4 -3 0
-3 -4 -5 -6 -8 -28 -29 -30 -32 -35 -36 -38 -41 -43 -47 0
-8 -6 -5 -4 -3 -47 -43 -38 -32 -41 -36 -30 -35 -29 -28 0
-3 -32 -30 -29 -28 -8 -6 -5 -4 -47 -43 -38 -41 -36 -35 0
-28 -29 -30 -32 -3 -35 -36 -38 -4 -41 -43 -5 -47 -6 -8 0
-28 -4 -38 -36 -35 -3 -32 -30 -29 -8 -6 -5 -47 -43 -41 0
-35 -36 -38 -4 -28 -41 -43 -5 -29 -47 -6 -30 -8 -32 -3 0
-35 -29 -5 -43 -41 -28 -4 -38 -36 -3 -32 -30 -8 -6 -47 0
-41 -43 -5 -29 -35 -47 -6 -30 -36 -8 -32 -38 -3 -4 -28 0
-41 -36 -30 -6 -47 -35 -29 -5 -43 -28 -4 -38 -3 -32 -8 0
-47 -6 -30 -36 -41 -8 -32 -38 -43 -3 -4 -5 -28 -29 -35 0
-8 -32 -38 -43 -47 -3 -4 -5 -6 -28 -29 -30 -35 -36 -41 0
-47 -43 -38 -32 -8 -41 -36 -30 -6 -35 -29 -5 -28 -4 -3 0
-3 -4 -5 -6 -9 -28 -29 -30 -33 -35 -36 -39 -41 -44 -48 0
-9 -6 -5 -4 -3 -48 -44 -39 -33 -41 -36 -30 -35 -29 -28 0
-3 -33 -30 -29 -28 -9 -6 -5 -4 -48 -44 -39 -41 -36 -35 0
-28 -29 -30 -33 -3 -35 -36 -39 -4 -41 -44 -5 -48 -6 -9 0
-28 -4 -39 -36 -35 -3 -33 -30 -29 -9 -6 -5 -48 -44 -41 0
-35 -36 -39 -4 -28 -41 -44 -5 -29 -48 -6 -30 -9 -33 -3 0
-35 -29 -5 -44 -41 -28 -4 -39 -36 -3 -33 -30 -9 -6 -48 0
-41 -44 -5 -29 -35 -48 -6 -30 -36 -9 -33 -39 -3 -4 -28 0
-41 -36 -30 -6 -48 -35 -29 -5 -44 -28 -4 -39 -3 -33 -9 0
-48 -6 -30 -36 -41 -9 -33 -39 -44 -3 -4 -5 -28 -29 -35 0
-9 -33 -39 -44 -48 -3 -4 -5 -6 -28 -29 -30 -35 -36 -41 0
-48 -44 -39 -33 -9 -41 -36 -30 -6 -35 -29 -5 -28 -4 -3 0
-3 -4 -5 -6 -10 -28 -29 -30 -34 -35 -36 -40 -41 -45 -49 0
-10 -6 -5 -4 -3 -49 -45 -40 -34 -41 -36 -30 -35 -29 -28 0
-3 -34 -30 -29 -28 -10 -6 -5 -4 -49 -45 -40 -41 -36 -35 0
-28 -29 -30 -34 -3 -35 -36 -40 -4 -41 -45 -5 -49 -6 -10 0
-28 -4 -40 -36 -35 -3 -34 -30 -29 -10 -6 -5 -49 -45 -41 0
-35 -36 -40 -4 -28 -41 -45 -5 -29 -49 -6 -30 -10 -34 -3 0
-35 -29 -5 -45 -41 -28 -4 -40 -36 -3 -34 -30 -10 -6 -49 0
-41 -45 -5 -29 -35 -49 -6 -30 -36 -10 -34 -40 -3 -4 -28 0
-41 -36 -30 -6 -49 -35 -29 -5 -45 -28 -4 -40 -3 -34 -10 0
-49 -6 -30 -36 -41 -10 -34 -40 -45 -3 -4 -5 -28 -29 -35 0
-10 -34 -40 -45 -49 -3 -4 -5 -6 -28 -29 -30 -35 -36 -41 0
-49 -45 -40 -34 -10 -41 -36 -30 -6 -35 -29 -5 -28 -4 -3 0
-3 -4 -5 -7 -8 -28 -29 -31 -32 -35 -37 -38 -42 -43 -50 0
-8 -7 -5 -4 -3 -50 -43 -38 -32 -42 -37 -31 -35 -29 -28 0
-3 -32 -31 -29 -28 -8 -7 -5 -4 -50 -43 -38 -42 -37 -35 0
-28 -29 -31 -32 -3 -35 -37 -38 -4 -42 -43 -5 -50 -7 -8 0
-28 -4 -38 -37 -35 -3 -32 -31 -29 -8 -7 -5 -50 -43 -42 0
-35 -37 -38 -4 -28 -42 -43 -5 -29 -50 -7 -31 -8 -32 -3 0
-35 -29 -5 -43 -42 -28 -4 -38 -37 -3 -32 -31 -8 -7 -50 0
-42 -43 -5 -29 -35 -50 -7 -31 -37 -8 -32 -38 -3 -4 -28 0
-42 -37 -31 -7 -50 -35 -29 -5 -43 -28 -4 -38 -3 -32 -8 0
-50 -7 -31 -37 -42 -8 -32 -38 -43 -3 -4 -5 -28 -29 -35 0
-8 -32 -38 -43 -50 -3 -4 -5 -7 -28 -29 -31 -35 -37 -42 0
-50 -43 -38 -32 -8 -42 -37 -31 -7 -35 -29 -5 -28 -4 -3 0
-3 -4 -5 -7 -9 -28 -29 -31 -33 -35 -37 -39 -42 -44 -51 0
-9 -7 -5 -4 -3 -51 -44 -39 -33 -42 -37 -31 -35 -29 -28 0
-3 -33 -31 -29 -28 -9 -7 -5 -4 -51 -44 -39 -42 -37 -35 0
-28 -29 -31 -33 -3 -35 -37 -39 -4 -42 -44 -5 -51 -7 -9 0
-28 -4 -39 -37 -35 -3 -33 -31 -29 -9 -7 -5 -51 -44 -42 0
-35 -37 -39 -4 -28 -42 -44 -5 -29 -51 -7 -31 -9 -33 -3 0
-35 -29 -5 -44 -42 -28 -4 -39 -37 -3 -33 -31 -9 -7 -51 0
-42 -44 -5 -29 -35 -51 -7 -31 -37 -9 -33 -39 -3 -4 -28 0
-42 -37 -31 -7 -51 -35 -29 -5 -44 -28 -4 -39 -3 -33 -9 0
-51 -7 -31 -37 -42 -9 -33 -39 -44 -3 -4 -5 -28 -29 -35 0
-9 -33 -39 -44 -51 -3 -4 -5 -7 -28 -29 -31 -35 -37 -42 0
-51 -44 -39 -33 -9 -42 -37 -31 -7 -35 -29 -5 -28 -4 -3 0
-3 -4 -5 -7 -10 -28 -29 -31 -34 -35 -37 -40 -42 -45 -52 0
-10 -7 -5 -4 -3 -52 -45 -40 -34 -42 -37 -31 -35 -29 -28 0
-3 -34 -31 -29 -28 -10 -7 -5 -4 -52 -45 -40 -42 -37 -35 0
-28 -29 -31 -34 -3 -35 -37 -40 -4 -42 -45 -5 -52 -7 -10 0
-28 -4 -40 -37 -35 -3 -34 -31 -29 -10 -7 -5 -52 -45 -42 0
-35 -37 -40 -4 -28 -42 -45 -5 -29 -52 -7 -31 -10 -34 -3 0
-35 -29 -5 -45 -42 -28 -4 -40 -37 -3 -34 -31 -10 -7 -52 0
-42 -45 -5 -29 -35 -52 -7 -31 -37 -10 -34 -40 -3 -4 -28 0
-42 -37 -31 -7 -52 -35 -29 -5 -45 -28 -4 -40 -3 -34 -10 0
-52 -7 -31 -37 -42 -10 -34 -40 -45 -3 -4 -5 -28 -29 -35 0
-10 -34 -40 -45 -52 -3 -4 -5 -7 -28 -29 -31 -35 -37 -42 0
-52 -45 -40 -34 -10 -42 -37 -31 -7 -35 -29 -5 -28 -4 -3 0
-3 -4 -5 -8 -9 -28 -29 -32 -33 -35 -38 -39 -43 -44 -53 0
-9 -8 -5 -4 -3 -53 -44 -39 -33 -43 -38 -32 -35 -29 -28 0
-3 -33 -32 -29 -28 -9 -8 -5 -4 -53 -44 -39 -43 -38 -35 0
-28 -29 -32 -33 -3 -35 -38 -39 -4 -43 -44 -5 -53 -8 -9 0
-28 -4 -39 -38 -35 -3 -33 -32 -29 -9 -8 -5 -53 -44 -43 0
-35 -38 -39 -4 -28 -43 -44 -5 -29 -53 -8 -32 -9 -33 -3 0
-35 -29 -5 -44 -43 -28 -4 -39 -38 -3 -33 -32 -9 -8 -53 0
-43 -44 -5 -29 -35 -53 -8 -32 -38 -9 -33 -39 -3 -4 -28 0
-43 -38 -32 -8 -53 -35 -29 -5 -44 -28 -4 -39 -3 -33 -9 0
-53 -8 -32 -38 -43 -9 -33 -39 -44 -3 -4 -5 -28 -29 -35 0
-9 -33 -39 -44 -53 -3 -4 -5 -8 -28 -29 -32 -35 -38 -43 0
-53 -44 -39 -33 -9 -43 -38 -32 -8 -35 -29 -5 -28 -4 -3 0
-3 -4 -5 -8 -10 -28 -29 -32 -34 -35 -38 -40 -43 -45 -54 0
-10 -8 -5 -4 -3 -54 -45 -40 -34 -43 -38 -32 -35 -29 -28 0
-3 -34 -32 -29 -28 -10 -8 -5 -4 -54 -45 -40 -43 -38 -35 0
-28 -29 -32 -34 -3 -35 -38 -40 -4 -43 -45 -5 -54 -8 -10 0
-28 -4 -40 -38 -35 -3 -34 -32 -29 -10 -8 -5 -54 -45 -43 0
-35 -38 -40 -4 -28 -43 -45 -5 -29 -54 -8 -32 -10 -34 -3 0
-35 -29 -5 -45 -43 -28 -4 -40 -38 -3 -34 -32 -10 -8 -54 0
-43 -45 -5 -29 -35 -54 -8 -32 -38 -10 -34 -40 -3 -4 -28 0
-43 -38 -32 -8 -54 -35 -29 -5 -45 -28 -4 -40 -3 -34 -10 0
-54 -8 -32 -38 -43 -10 -34 -40 -45 -3 -4 -5 -28 -29 -35 0
-10 -34 -40 -45 -54 -3 -4 -5 -8 -28 -29 -32 -35 -38 -43 0
-54 -45 -40 -34 -10 -43 -38 -32 -8 -35 -29 -5 -28 -4 -3 0
-3 -4 -5 -9 -10 -28 -29 -33 -34 -35 -39 -40 -44 -45 -55 0
-10 -9 -5 -4 -3 -55 -45 -40 -34 -44 -39 -33 -35 -29 -28 0
-3 -34 -33 -29 -28 -10 -9 -5 -4 -55 -45 -40 -44 -39 -35 0
-28 -29 -33 -34 -3 -35 -39 -40 -4 -44 -45 -5 -55 -9 -10 0
-28 -4 -40 -39 -35 -3 -34 -33 -29 -10 -9 -5 -55 -45 -44 0
-35 -39 -40 -4 -28 -44 -45 -5 -29 -55 -9 -33 -10 -34 -3 0
-35 -29 -5 -45 -44 -28 -4 -40 -39 -3 -34 -33 -10 -9 -55 0
-44 -45 -5 -29 -35 -55 -9 -33 -39 -10 -34 -40 -3 -4 -28 0
-44 -39 -33 -9 -55 -35 -29 -5 -45 -28 -4 -40 -3 -34 -10 0
-55 -9 -33 -39 -44 -10 -34 -40 -45 -3 -4 -5 -28 -29 -35 0
-10 -34 -40 -45 -55 -3 -4 -5 -9 -28 -29 -33 -35 -39 -44 0
-55 -45 -40 -34 -10 -44 -39 -33 -9 -35 -29 -5 -28 -4 -3 0
-3 -4 -6 -7 -8 -28 -30 -31 -32 -36 -37 -38 -46 -47 -50 0
-8 -7 -6 -4 -3 -50 -47 -38 -32 -46 -37 -31 -36 -30 -28 0
-3 -32 -31 -30 -28 -8 -7 -6 -4 -50 -47 -38 -46 -37 -36 0
-28 -30 -31 -32 -3 -36 -37 -38 -4 -46 -47 -6 -50 -7 -8 0
-28 -4 -38 -37 -36 -3 -32 -31 -30 -8 -7 -6 -50 -47 -46 0
-36 -37 -38 -4 -28 -46 -47 -6 -30 -50 -7 -31 -8 -32 -3 0
-36 -30 -6 -47 -46 -28 -4 -38 -37 -3 -32 -31 -8 -7 -50 0
-46 -47 -6 -30 -36 -50 -7 -31 -37 -8 -32 -38 -3 -4 -28 0
-46 -37 -31 -7 -50 -36 -30 -6 -47 -28 -4 -38 -3 -32 -8 0
-50 -7 -31 -37 -46 -8 -32 -38 -47 -3 -4 -6 -28 -30 -36 0
-8 -32 -38 -47 -50 -3 -4 -6 -7 -28 -30 -31 -36 -37 -46 0
-50 -47 -38 -32 -8 -46 -37 -31 -7 -36 -30 -6 -28 -4 -3 0
-3 -4 -6 -7 -9 -28 -30 -31 -33 -36 -37 -39 -46 -48 -51 0
-9 -7 -6 -4 -3 -51 -48 -39 -33 -46 -37 -31 -36 -30 -28 0
-3 -33 -31 -30 -28 -9 -7 -6 -4 -51 -48 -39 -46 -37 -36 0
-28 -30 -31 -33 -3 -36 -37 -39 -4 -46 -48 -6 -51 -7 -9 0
-28 -4 -39 -37 -36 -3 -33 -31 -30 -9 -7 -6 -51 -48 -46 0
-36 -37 -39 -4 -28 -46 -48 -6 -30 -51 -7 -31 -9 -33 -3 0
-36 -30 -6 -48 -46 -28 -4 -39 -37 -3 -33 -31 -9 -7 -51 0
-46 -48 -6 -30 -36 -51 -7 -31 -37 -9 -33 -39 -3 -4 -28 0
-46 -37 -31 -7 -51 -36 -30 -6 -48 -28 -4 -39 -3 -33 -9 0
-51 -7 -31 -37 -46 -9 -33 -39 -48 -3 -4 -6 -28 -30 -36 0
-9 -33 -39 -48 -51 -3 -4 -6 -7 -28 -30 -31 -36 -37 -46 0
-51 -48 -39 -33 -9 -46 -37 -31 -7 -36 -30 -6 -28 -4 -3 0
-3 -4 -6 -7 -10 -28 -30 -31 -34 -36 -37 -40 -46 -49 -52 0
-10 -7 -6 -4 -3 -52 -49 -40 -34 -46 -37 -31 -36 -30 -28 0
-3 -34 -31 -30 -28 -10 -7 -6 -4 -52 -49 -40 -46 -37 -36 0
-28 -30 -31 -34 -3 -36 -37 -40 -4 -46 -49 -6 -52 -7 -10 0
-28 -4 -40 -37 -36 -3 -34 -31 -30 -10 -7 -6 -52 -49 -46 0
-36 -37 -40 -4 -28 -46 -49 -6 -30 -52 -7 -31 -10 -34 -3 0
-36 -30 -6 -49 -46 -28 -4 -40 -37 -3 -34 -31 -10 -7 -52 0
-46 -49 -6 -30 -36 -52 -7 -31 -37 -10 -34 -40 -3 -4 -28 0
-46 -37 -31 -7 -52 -36 -30 -6 -49 -28 -4 -40 -3 -34 -10 0
-52 -7 -31 -37 -46 -10 -34 -40 -49 -3 -4 -6 -28 -30 -36 0
-10 -34 -40 -49 -52 -3 -4 -6 -7 -28 -30 -31 -36 -37 -46 0
-52 -49 -40 -34 -10 -46 -37 -31 -7 -36 -30 -6 -28 -4 -3 0
-3 -4 -6 -8 -9 -28 -30 -32 -33 -36 -38 -39 -47 -48 -53 0
-9 -8 -6 -4 -3 -53 -48 -39 -33 -47 -38 -32 -36 -30 -28 0
-3 -33 -32 -30 -28 -9 -8 -6 -4 -53 -48 -39 -47 -38 -36 0
-28 -30 -32 -33 -3 -36 -38 -39 -4 -47 -48 -6 -53 -8 -9 0
-28 -4 -39 -38 -36 -3 -33 -32 -30 -9 -8 -6 -53 -48 -47 0
-36 -38 -39 -4 -28 -47 -48 -6 -30 -53 -8 -32 -9 -33 -3 0
-36 -30 -6 -48 -47 -28 -4 -39 -38 -3 -33 -32 -9 -8 -53 0
-47 -48 -6 -30 -36 -53 -8 -32 -38 -9 -33 -39 -3 -4 -28 0
-47 -38 -32 -8 -53 -36 -30 -6 -48 -28 -4 -39 -3 -33 -9 0
-53 -8 -32 -38 -47 -9 -33 -39 -48 -3 -4 -6 -28 -30 -36 0
-9 -33 -39 -48 -53 -3 -4 -6 -8 -28 -30 -32 -36 -38 -47 0
-53 -48 -39 -33 -9 -47 -38 -32 -8 -36 -30 -6 -28 -4 -3 0
-3 -4 -6 -8 -10 -28 -30 -32 -34 -36 -38 -40 -47 -49 -54 0
-10 -8 -6 -4 -3 -54 -49 -40 -34 -47 -38 -32 -36 -30 -28 0
-3 -34 -32 -30 -28 -10 -8 -6 -4 -54 -49 -40 -47 -38 -36 0
-28 -30 -32 -34 -3 -36 -38 -40 -4 -47 -49 -6 -54 -8 -10 0
-28 -4 -40 -38 -36 -3 -34 -32 -30 -10 -8 -6 -54 -49 -47 0
-36 -38 -40 -4 -28 -47 -49 -6 -30 -54 -8 -32 -10 -34 -3 0
-36 -30 -6 -49 -47 -28 -4 -40 -38 -3 -34 -32 -10 -8 -54 0
-47 -49 -6 -30 -36 -54 -8 -32 -38 -10 -34 -40 -3 -4 -28 0
-47 -38 -32 -8 -54 -36 -30 -6 -49 -28 -4 -40 -3 -34 -10 0
-54 -8 -32 -38 -47 -10 -34 -40 -49 -3 -4 -6 -28 -30 -36 0
-10 -34 -40 -49 -54 -3 -4 -6 -8 -28 -30 -32 -36 -38 -47 0
-54 -49 -40 -34 -10 -47 -38 -32 -8 -36 -30 -6 -28 -4 -3 0
-3 -4 -6 -9 -10 -28 -30 -33 -34 -36 -39 -40 -48 -49 -55 0
-10 -9 -6 -4 -3 -55 -49 -40 -34 -48 -39 -33 -36 -30 -28 0
-3 -34 -33 -30 -28 -10 -9 -6 -4 -55 -49 -40 -48 -39 -36 0
-28 -30 -33 -34 -3 -36 -39 -40 -4 -48 -49 -6 -55 -9 -10 0
-28 -4 -40 -39 -36 -3 -34 -33 -30 -10 -9 -6 -55 -49 -48 0
-36 -39 -40 -4 -28 -48 -49 -6 -30 -55 -9 -33 -10 -34 -3 0
-36 -30 -6 -49 -48 -28 -4 -40 -39 -3 -34 -33 -10 -9 -55 0
-48 -49 -6 -30 -36 -55 -9 -33 -39 -10 -34 -40 -3 -4 -28 0
-48 -39 -33 -9 -55 -36 -30 -6 -49 -28 -4 -40 -3 -34 -10 0
-55 -9 -33 -39 -48 -10 -34 -40 -49 -3 -4 -6 -28 -30 -36 0
-10 -34 -40 -49 -55 -3 -4 -6 -9 -28 -30 -33 -36 -39 -48 0
-55 -49 -40 -34 -10 -48 -39 -33 -9 -36 -30 -6 -28 -4 -3 0
-3 -4 -7 -8 -9 -28 -31 -32 -33 -37 -38 -39 -50 -51 -53 0
-9 -8 -7 -4 -3 -53 -51 -39 -33 -50 -38 -32 -37 -31 -28 0
-3 -33 -32 -31 -28 -9 -8 -7 -4 -53 -51 -39 -50 -38 -37 0
-28 -31 -32 -33 -3 -37 -38 -39 -4 -50 -51 -7 -53 -8 -9 0
-28 -4 -39 -38 -37 -3 -33 -32 -31 -9 -8 -7 -53 -51 -50 0
-37 -38 -39 -4 -28 -50 -51 -7 -31 -53 -8 -32 -9 -33 -3 0
-37 -31 -7 -51 -50 -28 -4 -39 -38 -3 -33 -32 -9 -8 -53 0
-50 -51 -7 -31 -37 -53 -8 -32 -38 -9 -33 -39 -3 -4 -28 0
-50 -38 -32 -8 -53 -37 -31 -7 -51 -28 -4 -39 -3 -33 -9 0
-53 -8 -32 -38 -50 -9 -33 -39 -51 -3 -4 -7 -28 -31 -37 0
-9 -33 -39 -51 -53 -3 -4 -7 -8 -28 -31 -32 -37 -38 -50 0
-53 -51 -39 -33 -9 -50 -38 -32 -8 -37 -31 -7 -28 -4 -3 0
-3 -4 -7 -8 -10 -28 -31 -32 -34 -37 -38 -40 -50 -52 -54 0
-10 -8 -7 -4 -3 -54 -52 -40 -34 -50 -38 -32 -37 -31 -28 0
-3 -34 -32 -31 -28 -10 -8 -7 -4 -54 -52 -40 -50 -38 -37 0
-28 -31 -32 -34 -3 -37 -38 -40 -4 -50 -52 -7 -54 -8 -10 0
-28 -4 -40 -38 -37 -3 -34 -32 -31 -10 -8 -7 -54 -52 -50 0
-37 -38 -40 -4 -28 -50 -52 -7 -31 -54 -8 -32 -10 -34 -3 0
-37 -31 -7 -52 -50 -28 -4 -40 -38 -3 -34 -32 -10 -8 -54 0
-50 -52 -7 -31 -37 -54 -8 -32 -38 -10 -34 -40 -3 -4 -28 0
-50 -38 -32 -8 -54 -37 -31 -7 -52 -28 -4 -40 -3 -34 -10 0
-54 -8 -32 -38 -50 -10 -34 -40 -52 -3 -4 -7 -28 -31 -37 0
-10 -34 -40 -52 -54 -3 -4 -7 -8 -28 -31 -32 -37 -38 -50 0
-54 -52 -40 -34 -10 -50 -38 -32 -8 -37 -31 -7 -28 -4 -3 0
-3 -4 -7 -9 -10 -28 -31 -33 -34 -37 -39 -40 -51 -52 -55 0
-10 -9 -7 -4 -3 -55 -52 -40 -34 -51 -39 -33 -37 -31 -28 0
-3 -34 -33 -31 -28 -10 -9 -7 -4 -55 -52 -40 -51 -39 -37 0
-28 -31 -33 -34 -3 -37 -39 -40 -4 -51 -52 -7 -55 -9 -10 0
-28 -4 -40 -39 -37 -3 -34 -33 -31 -10 -9 -7 -55 -52 -51 0
-37 -39 -40 -4 -28 -51 -52 -7 -31 -55 -9 -33 -10 -34 -3 0
-37 -31 -7 -52 -51 -28 -4 -40 -39 -3 -34 -33 -10 -9 -55 0
-51 -52 -7 -31 -37 -55 -9 -33 -39 -10 -34 -40 -3 -4 -28 0
-51 -39 -33 -9 -55 -37 -31 -7 -52 -28 -4 -40 -3 -34 -10 0
-55 -9 -33 -39 -51 -10 -34 -40 -52 -3 -4 -7 -28 -31 -37 0
-10 -34 -40 -52 -55 -3 -4 -7 -9 -28 -31 -33 -37 -39 -51 0
-55 -52 -40 -34 -10 -51 -39 -33 -9 -37 -31 -7 -28 -4 -3 0
-3 -4 -8 -9 -10 -28 -32 -33 -34 -38 -39 -40 -53 -54 -55 0
-10 -9 -8 -4 -3 -55 -54 -40 -34 -53 -39 -33 -38 -32 -28 0
-3 -34 -33 -32 -28 -10 -9 -8 -4 -55 -54 -40 -53 -39 -38 0
-28 -32 -33 -34 -3 -38 -39 -40 -4 -53 -54 -8 -55 -9 -10 0
-28 -4 -40 -39 -38 -3 -34 -33 -32 -10 -9 -8 -55 -54 -53 0
-38 -39 -40 -4 -28 -53 -54 -8 -32 -55 -9 -33 -10 -34 -3 0
-38 -32 -8 -54 -53 -28 -4 -40 -39 -3 -34 -33 -10 -9 -55 0
-53 -54 -8 -32 -38 -55 -9 -33 -39 -10 -34 -40 -3 -4 -28 0
-53 -39 -33 -9 -55 -38 -32 -8 -54 -28 -4 -40 -3 -34 -10 0
-55 -9 -33 -39 -53 -10 -34 -40 -54 -3 -4 -8 -28 -32 -38 0
-10 -34 -40 -54 -55 -3 -4 -8 -9 -28 -32 -33 -38 -39 -53 0
-55 -54 -40 -34 -10 -53 -39 -33 -9 -38 -32 -8 -28 -4 -3 0
-3 -5 -6 -7 -8 -29 -30 -31 -32 -41 -42 -43 -46 -47 -50 0
-8 -7 -6 -5 -3 -50 -47 -43 -32 -46 -42 -31 -41 -30 -29 0
-3 -32 -31 -30 -29 -8 -7 -6 -5 -50 -47 -43 -46 -42 -41 0
-29 -30 -31 -32 -3 -41 -42 -43 -5 -46 -47 -6 -50 -7 -8 0
-29 -5 -43 -42 -41 -3 -32 -31 -30 -8 -7 -6 -50 -47 -46 0
-41 -42 -43 -5 -29 -46 -47 -6 -30 -50 -7 -31 -8 -32 -3 0
-41 -30 -6 -47 -46 -29 -5 -43 -42 -3 -32 -31 -8 -7 -50 0
-46 -47 -6 -30 -41 -50 -7 -31 -42 -8 -32 -43 -3 -5 -29 0
-46 -42 -31 -7 -50 -41 -30 -6 -47 -29 -5 -43 -3 -32 -8 0
-50 -7 -31 -42 -46 -8 -32 -43 -47 -3 -5 -6 -29 -30 -41 0
-8 -32 -43 -47 -50 -3 -5 -6 -7 -29 -30 -31 -41 -42 -46 0
-50 -47 -43 -32 -8 -46 -42 -31 -7 -41 -30 -6 -29 -5 -3 0
-3 -5 -6 -7 -9 -29 -30 -31 -33 -41 -42 -44 -46 -48 -51 0
-9 -7 -6 -5 -3 -51 -48 -44 -33 -46 -42 -31 -41 -30 -29 0
-3 -33 -31 -30 -29 -9 -7 -6 -5 -51 -48 -44 -46 -42 -41 0
-29 -30 -31 -33 -3 -41 -42 -44 -5 -46 -48 -6 -51 -7 -9 0
-29 -5 -44 -42 -41 -3 -33 -31 -30 -9 -7 -6 -51 -48 -46 0
-41 -42 -44 -5 -29 -46 -48 -6 -30 -51 -7 -31 -9 -33 -3 0
-41 -30 -6 -48 -46 -29 -5 -44 -42 -3 -33 -31 -9 -7 -51 0
-46 -48 -6 -30 -41 -51 -7 -31 -42 -9 -33 -44 -3 -5 -29 0
-46 -42 -31 -7 -51 -41 -30 -6 -48 -29 -5 -44 -3 -33 -9 0
-51 -7 -31 -42 -46 -9 -33 -44 -48 -3 -5 -6 -29 -30 -41 0
-9 -33 -44 -48 -51 -3 -5 -6 -7 -29 -30 -31 -41 -42 -46 0
-51 -48 -44 -33 -9 -46 -42 -31 -7 -41 -30 -6 -29 -5 -3 0
-3 -5 -6 -7 -10 -29 -30 -31 -34 -41 -42 -45 -46 -49 -52 0
-10 -7 -6 -5 -3 -52 -49 -45 -34 -46 -42 -31 -41 -30 -29 0
-3 -34 -31 -30 -29 -10 -7 -6 -5 -52 -49 -45 -46 -42 -41 0
-29 -30 -31 -34 -3 -41 -42 -45 -5 -46 -49 -6 -52 -7 -10 0
-29 -5 -45 -42 -41 -3 -34 -31 -30 -10 -7 -6 -52 -49 -46 0
-41 -42 -45 -5 -29 -46 -49 -6 -30 -52 -7 -31 -10 -34 -3 0
-41 -30 -6 -49 -46 -29 -5 -45 -42 -3 -34 -31 -10 -7 -52 0
-46 -49 -6 -30 -41 -52 -7 -31 -42 -10 -34 -45 -3 -5 -29 0
-46 -42 -31 -7 -52 -41 -30 -6 -49 -29 -5 -45 -3 -34 -10 0
-52 -7 -31 -42 -46 -10 -34 -45 -49 -3 -5 -6 -29 -30 -41 0
-10 -34 -45 -49 -52 -3 -5 -6 -7 -29 -30 -31 -41 -42 -46 0
-52 -49 -45 -34 -10 -46 -42 -31 -7 -41 -30 -6 -29 -5 -3 0
-3 -5 -6 -8 -9 -29 -30 -32 -33 -41 -43 -44 -47 -48 -53 0
-9 -8 -6 -5 -3 -53 -48 -44 -33 -47 -43 -32 -41 -30 -29 0
-3 -33 -32 -30 -29 -9 -8 -6 -5 -53 -48 -44 -47 -43 -41 0
-29 -30 -32 -33 -3 -41 -43 -44 -5 -47 -48 -6 -53 -8 -9 0
-29 -5 -44 -43 -41 -3 -33 -32 -30 -9 -8 -6 -53 -48 -47 0
-41 -43 -44 -5 -29 -47 -48 -6 -30 -53 -8 -32 -9 -33 -3 0
-41 -30 -6 -48 -47 -29 -5 -44 -43 -3 -33 -32 -9 -8 -53 0
-47 -48 -6 -30 -41 -53 -8 -32 -43 -9 -33 -44 -3 -5 -29 0
-47 -43 -32 -8 -53 -41 -30 -6 -48 -29 -5 -44 -3 -33 -9 0
-53 -8 -32 -43 -47 -9 -33 -44 -48 -3 -5 -6 -29 -30 -41 0
-9 -33 -44 -48 -53 -3 -5 -6 -8 -29 -30 -32 -41 -43 -47 0
-53 -48 -44 -33 -9 -47 -43 -32 -8 -41 -30 -6 -29 -5 -3 0
-3 -5 -6 -8 -10 -29 -30 -32 -34 -41 -43 -45 -47 -49 -54 0
-10 -8 -6 -5 -3 -54 -49 -45 -34 -47 -43 -32 -41 -30 -29 0
-3 -34 -32 -30 -29 -10 -8 -6 -5 -54 -49 -45 -47 -43 -41 0
-29 -30 -32 -34 -3 -41 -43 -45 -5 -47 -49 -6 -54 -8 -10 0
-29 -5 -45 -43 -41 -3 -34 -32 -30 -10 -8 -6 -54 -49 -47 0
-41 -43 -45 -5 -29 -47 -49 -6 -30 -54 -8 -32 -10 -34 -3 0
-41 -30 -6 -49 -47 -29 -5 -45 -43 -3 -34 -32 -10 -8 -54 0
-47 -49 -6 -30 -41 -54 -8 -32 -43 -10 -34 -45 -3 -5 -29 0
-47 -43 -32 -8 -54 -41 -30 -6 -49 -29 -5 -45 -3 -34 -10 0
-54 -8 -32 -43 -47 -10 -34 -45 -49 -3 -5 -6 -29 -30 -41 0
-10 -34 -45 -49 -54 -3 -5 -6 -8 -29 -30 -32 -41 -43 -47 0
-54 -49 -45 -34 -10 -47 -43 -32 -8 -41 -30 -6 -29 -5 -3 0
-3 -5 -6 -9 -10 -29 -30 -33 -34 -41 -44 -45 -48 -49 -55 0
-10 -9 -6 -5 -3 -55 -49 -45 -34 -48 -44 -33 -41 -30 -29 0
-3 -34 -33 -30 -29 -10 -9 -6 -5 -55 -49 -45 -48 -44 -41 0
-29 -30 -33 -34 -3 -41 -44 -45 -5 -48 -49 -6 -55 -9 -10 0
-29 -5 -45 -44 -41 -3 -34 -33 -30 -10 -9 -6 -55 -49 -48 0
-41 -44 -45 -5 -29 -48 -49 -6 -30 -55 -9 -33 -10 -34 -3 0
-41 -30 -6 -49 -48 -29 -5 -45 -44 -3 -34 -33 -10 -9 -55 0
-48 -49 -6 -30 -41 -55 -9 -33 -44 -10 -34 -45 -3 -5 -29 0
-48 -44 -33 -9 -55 -41 -30 -6 -49 -29 -5 -45 -3 -34 -10 0
-55 -9 -33 -44 -48 -10 -34 -45 -49 -3 -5 -6 -29 -30 -41 0
-10 -34 -45 -49 -55 -3 -5 -6 -9 -29 -30 -33 -41 -44 -48 0
-55 -49 -45 -34 -10 -48 -44 -33 -9 -41 -30 -6 -29 -5 -3 0
-3 -5 -7 -8 -9 -29 -31 -32 -33 -42 -43 -44 -50 -51 -53 0
-9 -8 -7 -5 -3 -53 -51 -44 -33 -50 -43 -32 -42 -31 -29 0
-3 -33 -32 -31 -29 -9 -8 -7 -5 -53 -51 -44 -50 -43 -42 0
-29 -31 -32 -33 -3 -42 -43 -44 -5 -50 -51 -7 -53 -8 -9 0
-29 -5 -44 -43 -42 -3 -33 -32 -31 -9 -8 -7 -53 -51 -50 0
-42 -43 -44 -5 -29 -50 -51 -7 -31 -53 -8 -32 -9 -33 -3 0
-42 -31 -7 -51 -50 -29 -5 -44 -43 -3 -33 -32 -9 -8 -53 0
-50 -51 -7 -31 -42 -53 -8 -32 -43 -9 -33 -44 -3 -5 -29 0
-50 -43 -32 -8 -53 -42 -31 -7 -51 -29 -5 -44 -3 -33 -9 0
-53 -8 -32 -43 -50 -9 -33 -44 -51 -3 -5 -7 -29 -31 -42 0
-9 -33 -44 -51 -53 -3 -5 -7 -8 -29 -31 -32 -42 -43 -50 0
-53 -51 -44 -33 -9 -50 -43 -32 -8 -42 -31 -7 -29 -5 -3 0
-3 -5 -7 -8 -10 -29 -31 -32 -34 -42 -43 -45 -50 -52 -54 0
-10 -8 -7 -5 -3 -54 -52 -45 -34 -50 -43 -32 -42 -31 -29 0
-3 -34 -32 -31 -29 -10 -8 -7 -5 -54 -52 -45 -50 -43 -42 0
-29 -31 -32 -34 -3 -42 -43 -45 -5 -50 -52 -7 -54 -8 -10 0
-29 -5 -45 -43 -42 -3 -34 -32 -31 -10 -8 -7 -54 -52 -50 0
-42 -43 -45 -5 -29 -50 -52 -7 -31 -54 -8 -32 -10 -34 -3 0
-42 -31 -7 -52 -50 -29 -5 -45 -43 -3 -34 -32 -10 -8 -54 0
-50 -52 -7 -31 -42 -54 -8 -32 -43 -10 -34 -45 -3 -5 -29 0
-50 -43 -32 -8 -54 -42 -31 -7 -52 -29 -5 -45 -3 -34 -10 0
-54 -8 -32 -43 -50 -10 -34 -45 -52 -3 -5 -7 -29 -31 -42 0
-10 -34 -45 -52 -54 -3 -5 -7 -8 -29 -31 -32 -42 -43 -50 0
-54 -52 -45 -34 -10 -50 -43 -32 -8 -42 -31 -7 -29 -5 -3 0
-3 -5 -7 -9 -10 -29 -31 -33 -34 -42 -44 -45 -51 -52 -55 0
-10 -9 -7 -5 -3 -55 -52 -45 -34 -51 -44 -33 -42 -31 -29 0
-3 -34 -33 -31 -29 -10 -9 -7 -5 -55 -52 -45 -51 -44 -42 0
-29 -31 -33 -34 -3 -42 -44 -45 -5 -51 -52 -7 -55 -9 -10 0
-29 -5 -45 -44 -42 -3 -34 -33 -31 -10 -9 -7 -55 -52 -51 0
-42 -44 -45 -5 -29 -51 -52 -7 -31 -55 -9 -33 -10 -34 -3 0
-42 -31 -7 -52 -51 -29 -5 -45 -44 -3 -34 -33 -10 -9 -55 0
-51 -52 -7 -31 -42 -55 -9 -33 -44 -10 -34 -45 -3 -5 -29 0
-51 -44 -33 -9 -55 -42 -31 -7 -52 -29 -5 -45 -3 -34 -10 0
-55 -9 -33 -44 -51 -10 -34 -45 -52 -3 -5 -7 -29 -31 -42 0
-10 -34 -45 -52 -55 -3 -5 -7 -9 -29 -31 -33 -42 -44 -51 0
-55 -52 -45 -34 -10 -51 -44 -33 -9 -42 -31 -7 -29 -5 -3 0
-3 -5 -8 -9 -10 -29 -32 -33 -34 -43 -44 -45 -53 -54 -55 0
-10 -9 -8 -5 -3 -55 -54 -45 -34 -53 -44 -33 -43 -32 -29 0
-3 -34 -33 -32 -29 -10 -9 -8 -5 -55 -54 -45 -53 -44 -43 0
-29 -32 -33 -34 -3 -43 -44 -45 -5 -53 -54 -8 -55 -9 -10 0
-29 -5 -45 -44 -43 -3 -34 -33 -32 -10 -9 -8 -55 -54 -53 0
-43 -44 -45 -5 -29 -53 -54 -8 -32 -55 -9 -33 -10 -34 -3 0
-43 -32 -8 -54 -53 -29 -5 -45 -44 -3 -34 -33 -10 -9 -55 0
-53 -54 -8 -32 -43 -55 -9 -33 -44 -10 -34 -45 -3 -5 -29 0
-53 -44 -33 -9 -55 -43 -32 -8 -54 -29 -5 -45 -3 -34 -10 0
-55 -9 -33 -44 -53 -10 -34 -45 -54 -3 -5 -8 -29 -32 -43 0
-10 -34 -45 -54 -55 -3 -5 -8 -9 -29 -32 -33 -43 -44 -53 0
-55 -54 -45 -34 -10 -53 -44 -33 -9 -43 -32 -8 -29 -5 -3 0
-3 -6 -7 -8 -9 -30 -31 -32 -33 -46 -47 -48 -50 -51 -53 0
-9 -8 -7 -6 -3 -53 -51 -48 -33 -50 -47 -32 -46 -31 -30 0
-3 -33 -32 -31 -30 -9 -8 -7 -6 -53 -51 -48 -50 -47 -46 0
-30 -31 -32 -33 -3 -46 -47 -48 -6 -50 -51 -7 -53 -8 -9 0
-30 -6 -48 -47 -46 -3 -33 -32 -31 -9 -8 -7 -53 -51 -50 0
-46 -47 -48 -6 -30 -50 -51 -7 -31 -53 -8 -32 -9 -33 -3 0
-46 -31 -7 -51 -50 -30 -6 -48 -47 -3 -33 -32 -9 -8 -53 0
-50 -51 -7 -31 -46 -53 -8 -32 -47 -9 -33 -48 -3 -6 -30 0
-50 -47 -32 -8 -53 -46 -31 -7 -51 -30 -6 -48 -3 -33 -9 0
-53 -8 -32 -47 -50 -9 -33 -48 -51 -3 -6 -7 -30 -31 -46 0
-9 -33 -48 -51 -53 -3 -6 -7 -8 -30 -31 -32 -46 -47 -50 0
-53 -51 -48 -33 -9 -50 -47 -32 -8 -46 -31 -7 -30 -6 -3 0
-3 -6 -7 -8 -10 -30 -31 -32 -34 -46 -47 -49 -50 -52 -54 0
-10 -8 -7 -6 -3 -54 -52 -49 -34 -50 -47 -32 -46 -31 -30 0
-3 -34 -32 -31 -30 -10 -8 -7 -6 -54 -52 -49 -50 -47 -46 0
-30 -31 -32 -34 -3 -46 -47 -49 -6 -50 -52 -7 -54 -8 -10 0
-30 -6 -49 -47 -46 -3 -34 -32 -31 -10 -8 -7 -54 -52 -50 0
-46 -47 -49 -6 -30 -50 -52 -7 -31 -54 -8 -32 -10 -34 -3 0
-46 -31 -7 -52 -50 -30 -6 -49 -47 -3 -34 -32 -10 -8 -54 0
-50 -52 -7 -31 -46 -54 -8 -32 -47 -10 -34 -49 -3 -6 -30 0
-50 -47 -32 -8 -54 -46 -31 -7 -52 -30 -6 -49 -3 -34 -10 0
-54 -8 -32 -47 -50 -10 -34 -49 -52 -3 -6 -7 -30 -31 -46 0
-10 -34 -49 -52 -54 -3 -6 -7 -8 -30 -31 -32 -46 -47 -50 0
-54 -52 -49 -34 -10 -50 -47 -32 -8 -46 -31 -7 -30 -6 -3 0
-3 -6 -7 -9 -10 -30 -31 -33 -34 -46 -48 -49 -51 -52 -55 0
-10 -9 -7 -6 -3 -55 -52 -49 -34 -51 -48 -33 -46 -31 -30 0
-3 -34 -33 -31 -30 -10 -9 -7 -6 -55 -52 -49 -51 -48 -46 0
-30 -31 -33 -34 -3 -46 -48 -49 -6 -51 -52 -7 -55 -9 -10 0
-30 -6 -49 -48 -46 -3 -34 -33 -31 -10 -9 -7 -55 -52 -51 0
-46 -48 -49 -6 -30 -51 -52 -7 -31 -55 -9 -33 -10 -34 -3 0
-46 -31 -7 -52 -51 -30 -6 -49 -48 -3 -34 -33 -10 -9 -55 0
-51 -52 -7 -31 -46 -55 -9 -33 -48 -10 -34 -49 -3 -6 -30 0
-51 -48 -33 -9 -55 -46 -31 -7 -52 -30 -6 -49 -3 -34 -10 0
-55 -9 -33 -48 -51 -10 -34 -49 -52 -3 -6 -7 -30 -31 -46 0
-10 -34 -49 -52 -55 -3 -6 -7 -9 -30 -31 -33 -46 -48 -51 0
-55 -52 -49 -34 -10 -51 -48 -33 -9 -46 -31 -7 -30 -6 -3 0
-3 -6 -8 -9 -10 -30 -32 -33 -34 -47 -48 -49 -53 -54 -55 0
-10 -9 -8 -6 -3 -55 -54 -49 -34 -53 -48 -33 -47 -32 -30 0
-3 -34 -33 -32 -30 -10 -9 -8 -6 -55 -54 -49 -53 -48 -47 0
-30 -32 -33 -34 -3 -47 -48 -49 -6 -53 -54 -8 -55 -9 -10 0
-30 -6 -49 -48 -47 -3 -34 -33 -32 -10 -9 -8 -55 -54 -53 0
-47 -48 -49 -6 -30 -53 -54 -8 -32 -55 -9 -33 -10 -34 -3 0
-47 -32 -8 -54 -53 -30 -6 -49 -48 -3 -34 -33 -10 -9 -55 0
-53 -54 -8 -32 -47 -55 -9 -33 -48 -10 -34 -49 -3 -6 -30 0
-53 -48 -33 -9 -55 -47 -32 -8 -54 -30 -6 -49 -3 -34 -10 0
-55 -9 -33 -48 -53 -10 -34 -49 -54 -3 -6 -8 -30 -32 -47 0
-10 -34 -49 -54 -55 -3 -6 -8 -9 -30 -32 -33 -47 -48 -53 0
-55 -54 -49 -34 -10 -53 -48 -33 -9 -47 -32 -8 -30 -6 -3 0
-3 -7 -8 -9 -10 -31 -32 -33 -34 -50 -51 -52 -53 -54 -55 0
-10 -9 -8 -7 -3 -55 -54 -52 -34 -53 -51 -33 -50 -32 -31 0
-3 -34 -33 -32 -31 -10 -9 -8 -7 -55 -54 -52 -53 -51 -50 0
-31 -32 -33 -34 -3 -50 -51 -52 -7 -53 -54 -8 -55 -9 -10 0
-31 -7 -52 -51 -50 -3 -34 -33 -32 -10 -9 -8 -55 -54 -53 0
-50 -51 -52 -7 -31 -53 -54 -8 -32 -55 -9 -33 -10 -34 -3 0
-50 -32 -8 -54 -53 -31 -7 -52 -51 -3 -34 -33 -10 -9 -55 0
-53 -54 -8 -32 -50 -55 -9 -33 -51 -10 -34 -52 -3 -7 -31 0
-53 -51 -33 -9 -55 -50 -32 -8 -54 -31 -7 -52 -3 -34 -10 0
-55 -9 -33 -51 -53 -10 -34 -52 -54 -3 -7 -8 -31 -32 -50 0
-10 -34 -52 -54 -55 -3 -7 -8 -9 -31 -32 -33 -50 -51 -53 0
-55 -54 -52 -34 -10 -53 -51 -33 -9 -50 -32 -8 -31 -7 -3 0
-4 -5 -6 -7 -8 -35 -36 -37 -38 -41 -42 -43 -46 -47 -50 0
-8 -7 -6 -5 -4 -50 -47 -43 -38 -46 -42 -37 -41 -36 -35 0
-4 -38 -37 -36 -35 -8 -7 -6 -5 -50 -47 -43 -46 -42 -41 0
-35 -36 -37 -38 -4 -41 -42 -43 -5 -46 -47 -6 -50 -7 -8 0
-35 -5 -43 -42 -41 -4 -38 -37 -36 -8 -7 -6 -50 -47 -46 0
-41 -42 -43 -5 -35 -46 -47 -6 -36 -50 -7 -37 -8 -38 -4 0
-41 -36 -6 -47 -46 -35 -5 -43 -42 -4 -38 -37 -8 -7 -50 0
-46 -47 -6 -36 -41 -50 -7 -37 -42 -8 -38 -43 -4 -5 -35 0
-46 -42 -37 -7 -50 -41 -36 -6 -47 -35 -5 -43 -4 -38 -8 0
-50 -7 -37 -42 -46 -8 -38 -43 -47 -4 -5 -6 -35 -36 -41 0
-8 -38 -43 -47 -50 -4 -5 -6 -7 -35 -36 -37 -41 -42 -46 0
-50 -47 -43 -38 -8 -46 -42 -37 -7 -41 -36 -6 -35 -5 -4 0
-4 -5 -6 -7 -9 -35 -36 -37 -39 -41 -42 -44 -46 -48 -51 0
-9 -7 -6 -5 -4 -51 -48 -44 -39 -46 -42 -37 -41 -36 -35 0
-4 -39 -37 -36 -35 -9 -7 -6 -5 -51 -48 -44 -46 -42 -41 0
-35 -36 -37 -39 -4 -41 -42 -44 -5 -46 -48 -6 -51 -7 -9 0
-35 -5 -44 -42 -41 -4 -39 -37 -36 -9 -7 -6 -51 -48 -46 0
-41 -42 -44 -5 -35 -46 -48 -6 -36 -51 -7 -37 -9 -39 -4 0
-41 -36 -6 -48 -46 -35 -5 -44 -42 -4 -39 -37 -9 -7 -51 0
-46 -48 -6 -36 -41 -51 -7 -37 -42 -9 -39 -44 -4 -5 -35 0
-46 -42 -37 -7 -51 -41 -36 -6 -48 -35 -5 -44 -4 -39 -9 0
-51 -7 -37 -42 -46 -9 -39 -44 -48 -4 -5 -6 -35 -36 -41 0
-9 -39 -44 -48 -51 -4 -5 -6 -7 -35 -36 -37 -41 -42 -46 0
-51 -48 -44 -39 -9 -46 -42 -37 -7 -41 -36 -6 -35 -5 -4 0
-4 -5 -6 -7 -10 -35 -36 -37 -40 -41 -42 -45 -46 -49 -52 0
-10 -7 -6 -5 -4 -52 -49 -45 -40 -46 -42 -37 -41 -36 -35 0
-4 -40 -37 -36 -35 -10 -7 -6 -5 -52 -49 -45 -46 -42 -41 0
-35 -36 -37 -40 -4 -41 -42 -45 -5 -46 -49 -6 -52 -7 -10 0
-35 -5 -45 -42 -41 -4 -40 -37 -36 -10 -7 -6 -52 -49 -46 0
-41 -42 -45 -5 -35 -46 -49 -6 -36 -52 -7 -37 -10 -40 -4 0
-41 -36 -6 -49 -46 -35 -5 -45 -42 -4 -40 -37 -10 -7 -52 0
-46 -49 -6 -36 -41 -52 -7 -37 -42 -10 -40 -45 -4 -5 -35 0
-46 -42 -37 -7 -52 -41 -36 -6 -49 -35 -5 -45 -4 -40 -10 0
-52 -7 -37 -42 -46 -10 -40 -45 -49 -4 -5 -6 -35 -36 -41 0
-10 -40 -45 -49 -52 -4 -5 -6 -7 -35 -36 -37 -41 -42 -46 0
-52 -49 -45 -40 -10 -46 -42 -37 -7 -41 -36 -6 -35 -5 -4 0
-4 -5 -6 -8 -9 -35 -36 -38 -39 -41 -43 -44 -47 -48 -53 0
-9 -8 -6 -5 -4 -53 -48 -44 -39 -47 -43 -38 -41 -36 -35 0
-4 -39 -38 -36 -35 -9 -8 -6 -5 -53 -48 -44 -47 -43 -41 0
-35 -36 -38 -39 -4 -41 -43 -44 -5 -47 -48 -6 -53 -8 -9 0
-35 -5 -44 -43 -41 -4 -39 -38 -36 -9 -8 -6 -53 -48 -47 0
-41 -43 -44 -5 -35 -47 -48 -6 -36 -53 -8 -38 -9 -39 -4 0
-41 -36 -6 -48 -47 -35 -5 -44 -43 -4 -39 -38 -9 -8 -53 0
-47 -48 -6 -36 -41 -53 -8 -38 -43 -9 -39 -44 -4 -5 -35 0
-47 -43 -38 -8 -53 -41 -36 -6 -48 -35 -5 -44 -4 -39 -9 0
-53 -8 -38 -43 -47 -9 -39 -44 -48 -4 -5 -6 -35 -36 -41 0
-9 -39 -44 -48 -53 -4 -5 -6 -8 -35 -36 -38 -41 -43 -47 0
-53 -48 -44 -39 -9 -47 -43 -38 -8 -41 -36 -6 -35 -5 -4 0
-4 -5 -6 -8 -10 -35 -36 -38 -40 -41 -43 -45 -47 -49 -54 0
-10 -8 -6 -5 -4 -54 -49 -45 -40 -47 -43 -38 -41 -36 -35 0
-4 -40 -38 -36 -35 -10 -8 -6 -5 -54 -49 -45 -47 -43 -41 0
-35 -36 -38 -40 -4 -41 -43 -45 -5 -47 -49 -6 -54 -8 -10 0
-35 -5 -45 -43 -41 -4 -40 -38 -36 -10 -8 -6 -54 -49 -47 0
-41 -43 -45 -5 -35 -47 -49 -6 -36 -54 -8 -38 -10 -40 -4 0
-41 -36 -6 -49 -47 -35 -5 -45 -43 -4 -40 -38 -10 -8 -54 0
-47 -49 -6 -36 -41 -54 -8 -38 -43 -10 -40 -45 -4 -5 -35 0
-47 -43 -38 -8 -54 -41 -36 -6 -49 -35 -5 -45 -4 -40 -10 0
-54 -8 -38 -43 -47 -10 -40 -45 -49 -4 -5 -6 -35 -36 -41 0
-10 -40 -45 -49 -54 -4 -5 -6 -8 -35 -36 -38 -41 -43 -47 0
-54 -49 -45 -40 -10 -47 -43 -38 -8 -41 -36 -6 -35 -5 -4 0
-4 -5 -6 -9 -10 -35 -36 -39 -40 -41 -44 -45 -48 -49 -55 0
-10 -9 -6 -5 -4 -55 -49 -45 -40 -48 -44 -39 -41 -36 -35 0
-4 -40 -39 -36 -35 -10 -9 -6 -5 -55 -49 -45 -48 -44 -41 0
-35 -36 -39 -40 -4 -41 -44 -45 -5 -48 -49 -6 -55 -9 -10 0
-35 -5 -45 -44 -41 -4 -40 -39 -36 -10 -9 -6 -55 -49 -48 0
-41 -44 -45 -5 -35 -48 -49 -6 -36 -55 -9 -39 -10 -40 -4 0
-41 -36 -6 -49 -48 -35 -5 -45 -44 -4 -40 -39 -10 -9 -55 0
-48 -49 -6 -36 -41 -55 -9 -39 -44 -10 -40 -45 -4 -5 -35 0
-48 -44 -39 -9 -55 -41 -36 -6 -49 -35 -5 -45 -4 -40 -10 0
-55 -9 -39 -44 -48 -10 -40 -45 -49 -4 -5 -6 -35 -36 -41 0
-10 -40 -45 -49 -55 -4 -5 -6 -9 -35 -36 -39 -41 -44 -48 0
-55 -49 -45 -40 -10 -48 -44 -39 -9 -41 -36 -6 -35 -5 -4 0
-4 -5 -7 -8 -9 -35 -37 -38 -39 -42 -43 -44 -50 -51 -53 0
-9 -8 -7 -5 -4 -53 -51 -44 -39 -50 -43 -38 -42 -37 -35 0
-4 -39 -38 -37 -35 -9 -8 -7 -5 -53 -51 -44 -50 -43 -42 0
-35 -37 -38 -39 -4 -42 -43 -44 -5 -50 -51 -7 -53 -8 -9 0
-35 -5 -44 -43 -42 -4 -39 -38 -37 -9 -8 -7 -53 -51 -50 0
-42 -43 -44 -5 -35 -50 -51 -7 -37 -53 -8 -38 -9 -39 -4 0
-42 -37 -7 -51 -50 -35 -5 -44 -43 -4 -39 -38 -9 -8 -53 0
-50 -51 -7 -37 -42 -53 -8 -38 -43 -9 -39 -44 -4 -5 -35 0
-50 -43 -38 -8 -53 -42 -37 -7 -51 -35 -5 -44 -4 -39 -9 0
-53 -8 -38 -43 -50 -9 -39 -44 -51 -4 -5 -7 -35 -37 -42 0
-9 -39 -44 -51 -53 -4 -5 -7 -8 -35 -37 -38 -42 -43 -50 0
-53 -51 -44 -39 -9 -50 -43 -38 -8 -42 -37 -7 -35 -5 -4 0
-4 -5 -7 -8 -10 -35 -37 -38 -40 -42 -43 -45 -50 -52 -54 0
-10 -8 -7 -5 -4 -54 -52 -45 -40 -50 -43 -38 -42 -37 -35 0
-4 -40 -38 -37 -35 -10 -8 -7 -5 -54 -52 -45 -50 -43 -42 0
-35 -37 -38 -40 -4 -42 -43 -45 -5 -50 -52 -7 -54 -8 -10 0
-35 -5 -45 -43 -42 -4 -40 -38 -37 -10 -8 -7 -54 -52 -50 0
-42 -43 -45 -5 -35 -50 -52 -7 -37 -54 -8 -38 -10 -40 -4 0
-42 -37 -7 -52 -50 -35 -5 -45 -43 -4 -40 -38 -10 -8 -54 0
-50 -52 -7 -37 -42 -54 -8 -38 -43 -10 -40 -45 -4 -5 -35 0
-50 -43 -38 -8 -54 -42 -37 -7 -52 -35 -5 -45 -4 -40 -10 0
-54 -8 -38 -43 -50 -10 -40 -45 -52 -4 -5 -7 -35 -37 -42 0
-10 -40 -45 -52 -54 -4 -5 -7 -8 -35 -37 -38 -42 -43 -50 0
-54 -52 -45 -40 -10 -50 -43 -38 -8 -42 -37 -7 -35 -5 -4 0
-4 -5 -7 -9 -10 -35 -37 -39 -40 -42 -44 -45 -51 -52 -55 0
-10 -9 -7 -5 -4 -55 -52 -45 -40 -51 -44 -39 -42 -37 -35 0
-4 -40 -39 -37 -35 -10 -9 -7 -5 -55 -52 -45 -51 -44 -42 0
-35 -37 -39 -40 -4 -42 -44 -45 -5 -51 -52 -7 -55 -9 -10 0
-35 -5 -45 -44 -42 -4 -40 -39 -37 -10 -9 -7 -55 -52 -51 0
-42 -44 -45 -5 -35 -51 -52 -7 -37 -55 -9 -39 -10 -40 -4 0
-42 -37 -7 -52 -51 -35 -5 -45 -44 -4 -40 -39 -10 -9 -55 0
-51 -52 -7 -37 -42 -55 -9 -39 -44 -10 -40 -45 -4 -5 -35 0
-51 -44 -39 -9 -55 -42 -37 -7 -52 -35 -5 -45 -4 -40 -10 0
-55 -9 -39 -44 -51 -10 -40 -45 -52 -4 -5 -7 -35 -37 -42 0
-10 -40 -45 -52 -55 -4 -5 -7 -9 -35 -37 -39 -42 -44 -51 0
-55 -52 -45 -40 -10 -51 -44 -39 -9 -42 -37 -7 -35 -5 -4 0
-4 -5 -8 -9 -10 -35 -38 -39 -40 -43 -44 -45 -53 -54 -55 0
-10 -9 -8 -5 -4 -55 -54 -45 -40 -53 -44 -39 -43 -38 -35 0
-4 -40 -39 -38 -35 -10 -9 -8 -5 -55 -54 -45 -53 -44 -43 0
-35 -38 -39 -40 -4 -43 -44 -45 -5 -53 -54 -8 -55 -9 -10 0
-35 -5 -45 -44 -43 -4 -40 -39 -38 -10 -9 -8 -55 -54 -53 0
-43 -44 -45 -5 -35 -53 -54 -8 -38 -55 -9 -39 -10 -40 -4 0
-43 -38 -8 -54 -53 -35 -5 -45 -44 -4 -40 -39 -10 -9 -55 0
-53 -54 -8 -38 -43 -55 -9 -39 -44 -10 -40 -45 -4 -5 -35 0
-53 -44 -39 -9 -55 -43 -38 -8 -54 -35 -5 -45 -4 -40 -10 0
-55 -9 -39 -44 -53 -10 -40 -45 -54 -4 -5 -8 -35 -38 -43 0
-10 -40 -45 -54 -55 -4 -5 -8 -9 -35 -38 -39 -43 -44 -53 0
-55 -54 -45 -40 -10 -53 -44 -39 -9 -43 -38 -8 -35 -5 -4 0
-4 -6 -7 -8 -9 -36 -37 -38 -39 -46 -47 -48 -50 -51 -53 0
-9 -8 -7 -6 -4 -53 -51 -48 -39 -50 -47 -38 -46 -37 -36 0
-4 -39 -38 -37 -36 -9 -8 -7 -6 -53 -51 -48 -50 -47 -46 0
-36 -37 -38 -39 -4 -46 -47 -48 -6 -50 -51 -7 -53 -8 -9 0
-36 -6 -48 -47 -46 -4 -39 -38 -37 -9 -8 -7 -53 -51 -50 0
-46 -47 -48 -6 -36 -50 -51 -7 -37 -53 -8 -38 -9 -39 -4 0
-46 -37 -7 -51 -50 -36 -6 -48 -47 -4 -39 -38 -9 -8 -53 0
-50 -51 -7 -37 -46 -53 -8 -38 -47 -9 -39 -48 -4 -6 -36 0
-50 -47 -38 -8 -53 -46 -37 -7 -51 -36 -6 -48 -4 -39 -9 0
-53 -8 -38 -47 -50 -9 -39 -48 -51 -4 -6 -7 -36 -37 -46 0
-9 -39 -48 -51 -53 -4 -6 -7 -8 -36 -37 -38 -46 -47 -50 0
-53 -51 -48 -39 -9 -50 -47 -38 -8 -46 -37 -7 -36 -6 -4 0
-4 -6 -7 -8 -10 -36 -37 -38 -40 -46 -47 -49 -50 -52 -54 0
-10 -8 -7 -6 -4 -54 -52 -49 -40 -50 -47 -38 -46 -37 -36 0
-4 -40 -38 -37 -36 -10 -8 -7 -6 -54 -52 -49 -50 -47 -46 0
-36 -37 -38 -40 -4 -46 -47 -49 -6 -50 -52 -7 -54 -8 -10 0
-36 -6 -49 -47 -46 -4 -40 -38 -37 -10 -8 -7 -54 -52 -50 0
-46 -47 -49 -6 -36 -50 -52 -7 -37 -54 -8 -38 -10 -40 -4 0
-46 -37 -7 -52 -50 -36 -6 -49 -47 -4 -40 -38 -10 -8 -54 0
-50 -52 -7 -37 -46 -54 -8 -38 -47 -10 -40 -49 -4 -6 -36 0
-50 -47 -38 -8 -54 -46 -37 -7 -52 -36 -6 -49 -4 -40 -10 0
-54 -8 -38 -47 -50 -10 -40 -49 -52 -4 -6 -7 -36 -37 -46 0
-10 -40 -49 -52 -54 -4 -6 -7 -8 -36 -37 -38 -46 -47 -50 0
-54 -52 -49 -40 -10 -50 -47 -38 -8 -46 -37 -7 -36 -6 -4 0
-4 -6 -7 -9 -10 -36 -37 -39 -40 -46 -48 -49 -51 -52 -55 0
-10 -9 -7 -6 -4 -55 -52 -49 -40 -51 -48 -39 -46 -37 -36 0
-4 -40 -39 -37 -36 -10 -9 -7 -6 -55 -52 -49 -51 -48 -46 0
-36 -37 -39 -40 -4 -46 -48 -49 -6 -51 -52 -7 -55 -9 -10 0
-36 -6 -49 -48 -46 -4 -40 -39 -37 -10 -9 -7 -55 -52 -51 0
-46 -48 -49 -6 -36 -51 -52 -7 -37 -55 -9 -39 -10 -40 -4 0
-46 -37 -7 -52 -51 -36 -6 -49 -48 -4 -40 -39 -10 -9 -55 0
-51 -52 -7 -37 -46 -55 -9 -39 -48 -10 -40 -49 -4 -6 -36 0
-51 -48 -39 -9 -55 -46 -37 -7 -52 -36 -6 -49 -4 -40 -10 0
-55 -9 -39 -48 -51 -10 -40 -49 -52 -4 -6 -7 -36 -37 -46 0
-10 -40 -49 -52 -55 -4 -6 -7 -9 -36 -37 -39 -46 -48 -51 0
-55 -52 -49 -40 -10 -51 -48 -39 -9 -46 -37 -7 -36 -6 -4 0
-4 -6 -8 -9 -10 -36 -38 -39 -40 -47 -48 -49 -53 -54 -55 0
-10 -9 -8 -6 -4 -55 -54 -49 -40 -53 -48 -39 -47 -38 -36 0
-4 -40 -39 -38 -36 -10 -9 -8 -6 -55 -54 -49 -53 -48 -47 0
-36 -38 -39 -40 -4 -47 -48 -49 -6 -53 -54 -8 -55 -9 -10 0
-36 -6 -49 -48 -47 -4 -40 -39 -38 -10 -9 -8 -55 -54 -53 0
-47 -48 -49 -6 -36 -53 -54 -8 -38 -55 -9 -39 -10 -40 -4 0
-47 -38 -8 -54 -53 -36 -6 -49 -48 -4 -40 -39 -10 -9 -55 0
-53 -54 -8 -38 -47 -55 -9 -39 -48 -10 -40 -49 -4 -6 -36 0
-53 -48 -39 -9 -55 -47 -38 -8 -54 -36 -6 -49 -4 -40 -10 0
-55 -9 -39 -48 -53 -10 -40 -49 -54 -4 -6 -8 -36 -38 -47 0
-10 -40 -49 -54 -55 -4 -6 -8 -9 -36 -38 -39 -47 -48 -53 0
-55 -54 -49 -40 -10 -53 -48 -39 -9 -47 -38 -8 -36 -6 -4 0
-4 -7 -8 -9 -10 -37 -38 -39 -40 -50 -51 -52 -53 -54 -55 0
-10 -9 -8 -7 -4 -55 -54 -52 -40 -53 -51 -39 -50 -38 -37 0
-4 -40 -39 -38 -37 -10 -9 -8 -7 -55 -54 -52 -53 -51 -50 0
-37 -38 -39 -40 -4 -50 -51 -52 -7 -53 -54 -8 -55 -9 -10 0
-37 -7 -52 -51 -50 -4 -40 -39 -38 -10 -9 -8 -55 -54 -53 0
-50 -51 -52 -7 -37 -53 -54 -8 -38 -55 -9 -39 -10 -40 -4 0
-50 -38 -8 -54 -53 -37 -7 -52 -51 -4 -40 -39 -10 -9 -55 0
-53 -54 -8 -38 -50 -55 -9 -39 -51 -10 -40 -52 -4 -7 -37 0
-53 -51 -39 -9 -55 -50 -38 -8 -54 -37 -7 -52 -4 -40 -10 0
-55 -9 -39 -51 -53 -10 -40 -52 -54 -4 -7 -8 -37 -38 -50 0
-10 -40 -52 -54 -55 -4 -7 -8 -9 -37 -38 -39 -50 -51 -53 0
-55 -54 -52 -40 -10 -53 -51 -39 -9 -50 -38 -8 -37 -7 -4 0
-5 -6 -7 -8 -9 -41 -42 -43 -44 -46 -47 -48 -50 -51 -53 0
-9 -8 -7 -6 -5 -53 -51 -48 -44 -50 -47 -43 -46 -42 -41 0
-5 -44 -43 -42 -41 -9 -8 -7 -6 -53 -51 -48 -50 -47 -46 0
-41 -42 -43 -44 -5 -46 -47 -48 -6 -50 -51 -7 -53 -8 -9 0
-41 -6 -48 -47 -46 -5 -44 -43 -42 -9 -8 -7 -53 -51 -50 0
-46 -47 -48 -6 -41 -50 -51 -7 -42 -53 -8 -43 -9 -44 -5 0
-46 -42 -7 -51 -50 -41 -6 -48 -47 -5 -44 -43 -9 -8 -53 0
-50 -51 -7 -42 -46 -53 -8 -43 -47 -9 -44 -48 -5 -6 -41 0
-50 -47 -43 -8 -53 -46 -42 -7 -51 -41 -6 -48 -5 -44 -9 0
-53 -8 -43 -47 -50 -9 -44 -48 -51 -5 -6 -7 -41 -42 -46 0
-9 -44 -48 -51 -53 -5 -6 -7 -8 -41 -42 -43 -46 -47 -50 0
-53 -51 -48 -44 -9 -50 -47 -43 -8 -46 -42 -7 -41 -6 -5 0
-5 -6 -7 -8 -10 -41 -42 -43 -45 -46 -47 -49 -50 -52 -54 0
-10 -8 -7 -6 -5 -54 -52 -49 -45 -50 -47 -43 -46 -42 -41 0
-5 -45 -43 -42 -41 -10 -8 -7 -6 -54 -52 -49 -50 -47 -46 0
-41 -42 -43 -45 -5 -46 -47 -49 -6 -50 -52 -7 -54 -8 -10 0
-41 -6 -49 -47 -46 -5 -45 -43 -42 -10 -8 -7 -54 -52 -50 0
-46 -47 -49 -6 -41 -50 -52 -7 -42 -54 -8 -43 -10 -45 -5 0
-46 -42 -7 -52 -50 -41 -6 -49 -47 -5 -45 -43 -10 -8 -54 0
-50 -52 -7 -42 -46 -54 -8 -43 -47 -10 -45 -49 -5 -6 -41 0
-50 -47 -43 -8 -54 -46 -42 -7 -52 -41 -6 -49 -5 -45 -10 0
-54 -8 -43 -47 -50 -10 -45 -49 -52 -5 -6 -7 -41 -42 -46 0
-10 -45 -49 -52 -54 -5 -6 -7 -8 -41 -42 -43 -46 -47 -50 0
-54 -52 -49 -45 -10 -50 -47 -43 -8 -46 -42 -7 -41 -6 -5 0
-5 -6 -7 -9 -10 -41 -42 -44 -45 -46 -48 -49 -51 -52 -55 0
-10 -9 -7 -6 -5 -55 -52 -49 -45 -51 -48 -44 -46 -42 -41 0
-5 -45 -44 -42 -41 -10 -9 -7 -6 -55 -52 -49 -51 -48 -46 0
-41 -42 -44 -45 -5 -46 -48 -49 -6 -51 -52 -7 -55 -9 -10 0
-41 -6 -49 -48 -46 -5 -45 -44 -42 -10 -9 -7 -55 -52 -51 0
-46 -48 -49 -6 -41 -51 -52 -7 -42 -55 -9 -44 -10 -45 -5 0
-46 -42 -7 -52 -51 -41 -6 -49 -48 -5 -45 -44 -10 -9 -55 0
-51 -52 -7 -42 -46 -55 -9 -44 -48 -10 -45 -49 -5 -6 -41 0
-51 -48 -44 -9 -55 -46 -42 -7 -52 -41 -6 -49 -5 -45 -10 0
-55 -9 -44 -48 -51 -10 -45 -49 -52 -5 -6 -7 -41 -42 -46 0
-10 -45 -49 -52 -55 -5 -6 -7 -9 -41 -42 -44 -46 -48 -51 0
-55 -52 -49 -45 -10 -51 -48 -44 -9 -46 -42 -7 -41 -6 -5 0
-5 -6 -8 -9 -10 -41 -43 -44 -45 -47 -48 -49 -53 -54 -55 0
-10 -9 -8 -6 -5 -55 -54 -49 -45 -53 -48 -44 -47 -43 -41 0
-5 -45 -44 -43 -41 -10 -9 -8 -6 -55 -54 -49 -53 -48 -47 0
-41 -43 -44 -45 -5 -47 -48 -49 -6 -53 -54 -8 -55 -9 -10 0
-41 -6 -49 -48 -47 -5 -45 -44 -43 -10 -9 -8 -55 -54 -53 0
-47 -48 -49 -6 -41 -53 -54 -8 -43 -55 -9 -44 -10 -45 -5 0
-47 -43 -8 -54 -53 -41 -6 -49 -48 -5 -45 -44 -10 -9 -55 0
-53 -54 -8 -43 -47 -55 -9 -44 -48 -10 -45 -49 -5 -6 -41 0
-53 -48 -44 -9 -55 -47 -43 -8 -54 -41 -6 -49 -5 -45 -10 0
-55 -9 -44 -48 -53 -10 -45 -49 -54 -5 -6 -8 -41 -43 -47 0
-10 -45 -49 -54 -55 -5 -6 -8 -9 -41 -43 -44 -47 -48 -53 0
-55 -54 -49 -45 -10 -53 -48 -44 -9 -47 -43 -8 -41 -6 -5 0
-5 -7 -8 -9 -10 -42 -43 -44 -45 -50 -51 -52 -53 -54 -55 0
-10 -9 -8 -7 -5 -55 -54 -52 -45 -53 -51 -44 -50 -43 -42 0
-5 -45 -44 -43 -42 -10 -9 -8 -7 -55 -54 -52 -53 -51 -50 0
-42 -43 -44 -45 -5 -50 -51 -52 -7 -53 -54 -8 -55 -9 -10 0
-42 -7 -52 -51 -50 -5 -45 -44 -43 -10 -9 -8 -55 -54 -53 0
-50 -51 -52 -7 -42 -53 -54 -8 -43 -55 -9 -44 -10 -45 -5 0
-50 -43 -8 -54 -53 -42 -7 -52 -51 -5 -45 -44 -10 -9 -55 0
-53 -54 -8 -43 -50 -55 -9 -44 -51 -10 -45 -52 -5 -7 -42 0
-53 -51 -44 -9 -55 -50 -43 -8 -54 -42 -7 -52 -5 -45 -10 0
-55 -9 -44 -51 -53 -10 -45 -52 -54 -5 -7 -8 -42 -43 -50 0
-10 -45 -52 -54 -55 -5 -7 -8 -9 -42 -43 -44 -50 -51 -53 0
-55 -54 -52 -45 -10 -53 -51 -44 -9 -50 -43 -8 -42 -7 -5 0
-6 -7 -8 -9 -10 -46 -47 -48 -49 -50 -51 -52 -53 -54 -55 0
-10 -9 -8 -7 -6 -55 -54 -52 -49 -53 -51 -48 -50 -47 -46 0
-6 -49 -48 -47 -46 -10 -9 -8 -7 -55 -54 -52 -53 -51 -50 0
-46 -47 -48 -49 -6 -50 -51 -52 -7 -53 -54 -8 -55 -9 -10 0
-46 -7 -52 -51 -50 -6 -49 -48 -47 -10 -9 -8 -55 -54 -53 0
-50 -51 -52 -7 -46 -53 -54 -8 -47 -55 -9 -48 -10 -49 -6 0
-50 -47 -8 -54 -53 -46 -7 -52 -51 -6 -49 -48 -10 -9 -55 0
-53 -54 -8 -47 -50 -55 -9 -48 -51 -10 -49 -52 -6 -7 -46 0
-53 -51 -48 -9 -55 -50 -47 -8 -54 -46 -7 -52 -6 -49 -10 0
-55 -9 -48 -51 -53 -10 -49 -52 -54 -6 -7 -8 -46 -47 -50 0
-10 -49 -52 -54 -55 -6 -7 -8 -9 -46 -47 -48 -50 -51 -53 0
-55 -54 -52 -49 -10 -53 -51 -48 -9 -50 -47 -8 -46 -7 -6 0
-11 -12 -13 -14 -15 -20 -21 -22 -23 -28 -29 -30 -35 -36 -41 0
-15 -14 -13 -12 -11 -41 -36 -30 -23 -35 -29 -22 -28 -21 -20 0
-11 -23 -22 -21 -20 -15 -14 -13 -12 -41 -36 -30 -35 -29 -28 0
-20 -21 -22 -23 -11 -28 -29 -30 -12 -35 -36 -13 -41 -14 -15 0
-20 -12 -30 -29 -28 -11 -23 -22 -21 -15 -14 -13 -41 -36 -35 0
-28 -29 -30 -12 -20 -35 -36 -13 -21 -41 -14 -22 -15 -23 -11 0
-28 -21 -13 -36 -35 -20 -12 -30 -29 -11 -23 -22 -15 -14 -41 0
-35 -36 -13 -21 -28 -41 -14 -22 -29 -15 -23 -30 -11 -12 -20 0
-35 -29 -22 -14 -41 -28 -21 -13 -36 -20 -12 -30 -11 -23 -15 0
-41 -14 -22 -29 -35 -15 -23 -30 -36 -11 -12 -13 -20 -21 -28 0
-15 -23 -30 -36 -41 -11 -12 -13 -14 -20 -21 -22 -28 -29 -35 0
-41 -36 -30 -23 -15 -35 -29 -22 -14 -28 -21 -13 -20 -12 -11 0
-11 -12 -13 -14 -16 -20 -21 -22 -24 -28 -29 -31 -35 -37 -42 0
-16 -14 -13 -12 -11 -42 -37 -31 -24 -35 -29 -22 -28 -21 -20 0
-11 -24 -22 -21 -20 -16 -14 -13 -12 -42 -37 -31 -35 -29 -28 0
-20 -21 -22 -24 -11 -28 -29 -31 -12 -35 -37 -13 -42 -14 -16 0
-20 -12 -31 -29 -28 -11 -24 -22 -21 -16 -14 -13 -42 -37 -35 0
-28 -29 -31 -12 -20 -35 -37 -13 -21 -42 -14 -22 -16 -24 -11 0
-28 -21 -13 -37 -35 -20 -12 -31 -29 -11 -24 -22 -16 -14 -42 0
-35 -37 -13 -21 -28 -42 -14 -22 -29 -16 -24 -31 -11 -12 -20 0
-35 -29 -22 -14 -42 -28 -21 -13 -37 -20 -12 -31 -11 -24 -16 0
-42 -14 -22 -29 -35 -16 -24 -31 -37 -11 -12 -13 -20 -21 -28 0
-16 -24 -31 -37 -42 -11 -12 -13 -14 -20 -21 -22 -28 -29 -35 0
-42 -37 -31 -24 -16 -35 -29 -22 -14 -28 -21 -13 -20 -12 -11 0
-11 -12 -13 -14 -17 -20 -21 -22 -25 -28 -29 -32 -35 -38 -43 0
-17 -14 -13 -12 -11 -43 -38 -32 -25 -35 -29 -22 -28 -21 -20 0
-11 -25 -22 -21 -20 -17 -14 -13 -12 -43 -38 -32 -35 -29 -28 0
-20 -21 -22 -25 -11 -28 -29 -32 -12 -35 -38 -13 -43 -14 -17 0
-20 -12 -32 -29 -28 -11 -25 -22 -21 -17 -14 -13 -43 -38 -35 0
-28 -29 -32 -12 -20 -35 -38 -13 -21 -43 -14 -22 -17 -25 -11 0
-28 -21 -13 -38 -35 -20 -12 -32 -29 -11 -25 -22 -17 -14 -43 0
-35 -38 -13 -21 -28 -43 -14 -22 -29 -17 -25 -32 -11 -12 -20 0
-35 -29 -22 -14 -43 -28 -21 -13 -38 -20 -12 -32 -11 -25 -17 0
-43 -14 -22 -29 -35 -17 -25 -32 -38 -11 -12 -13 -20 -21 -28 0
-17 -25 -32 -38 -43 -11 -12 -13 -14 -20 -21 -22 -28 -29 -35 0
-43 -38 -32 -25 -17 -35 -29 -22 -14 -28 -21 -13 -20 -12 -11 0
-11 -12 -13 -14 -18 -20 -21 -22 -26 -28 -29 -33 -35 -39 -44 0
-18 -14 -13 -12 -11 -44 -39 -33 -26 -35 -29 -22 -28 -21 -20 0
-11 -26 -22 -21 -20 -18 -14 -13 -12 -44 -39 -33 -35 -29 -28 0
-20 -21 -22 -26 -11 -28 -29 -33 -12 -35 -39 -13 -44 -14 -18 0
-20 -12 -33 -29 -28 -11 -26 -22 -21 -18 -14 -13 -44 -39 -35 0
-28 -29 -33 -12 -20 -35 -39 -13 -21 -44 -14 -22 -18 -26 -11 0
-28 -21 -13 -39 -35 -20 -12 -33 -29 -11 -26 -22 -18 -14 -44 0
-35 -39 -13 -21 -28 -44 -14 -22 -29 -18 -26 -33 -11 -12 -20 0
-35 -29 -22 -14 -44 -28 -21 -13 -39 -20 -12 -33 -11 -26 -18 0
-44 -14 -22 -29 -35 -18 -26 -33 -39 -11 -12 -13 -20 -21 -28 0
-18 -26 -33 -39 -44 -11 -12 -13 -14 -20 -21 -22 -28 -29 -35 0
-44 -39 -33 -26 -18 -35 -29 -22 -14 -28 -21 -13 -20 -12 -11 0
-11 -12 -13 -14 -19 -20 -21 -22 -27 -28 -29 -34 -35 -40 -45 0
-19 -14 -13 -12 -11 -45 -40 -34 -27 -35 -29 -22 -28 -21 -20 0
-11 -27 -22 -21 -20 -19 -14 -13 -12 -45 -40 -34 -35 -29 -28 0
-20 -21 -22 -27 -11 -28 -29 -34 -12 -35 -40 -13 -45 -14 -19 0
-20 -12 -34 -29 -28 -11 -27 -22 -21 -19 -14 -13 -45 -40 -35 0
-28 -29 -34 -12 -20 -35 -40 -13 -21 -45 -14 -22 -19 -27 -11 0
-28 -21 -13 -40 -35 -20 -12 -34 -29 -11 -27 -22 -19 -14 -45 0
-35 -40 -13 -21 -28 -45 -14 -22 -29 -19 -27 -34 -11 -12 -20 0
-35 -29 -22 -14 -45 -28 -21 -13 -40 -20 -12 -34 -11 -27 -19 0
-45 -14 -22 -29 -35 -19 -27 -34 -40 -11 -12 -13 -20 -21 -28 0
-19 -27 -34 -40 -45 -11 -12 -13 -14 -20 -21 -22 -28 -29 -35 0
-45 -40 -34 -27 -19 -35 -29 -22 -14 -28 -21 -13 -20 -12 -11 0
-11 -12 -13 -15 -16 -20 -21 -23 -24 -28 -30 -31 -36 -37 -46 0
-16 -15 -13 -12 -11 -46 -37 -31 -24 -36 -30 -23 -28 -21 -20 0
-11 -24 -23 -21 -20 -16 -15 -13 -12 -46 -37 -31 -36 -30 -28 0
-20 -21 -23 -24 -11 -28 -30 -31 -12 -36 -37 -13 -46 -15 -16 0
-20 -12 -31 -30 -28 -11 -24 -23 -21 -16 -15 -13 -46 -37 -36 0
-28 -30 -31 -12 -20 -36 -37 -13 -21 -46 -15 -23 -16 -24 -11 0
-28 -21 -13 -37 -36 -20 -12 -31 -30 -11 -24 -23 -16 -15 -46 0
-36 -37 -13 -21 -28 -46 -15 -23 -30 -16 -24 -31 -11 -12 -20 0
-36 -30 -23 -15 -46 -28 -21 -13 -37 -20 -12 -31 -11 -24 -16 0
-46 -15 -23 -30 -36 -16 -24 -31 -37 -11 -12 -13 -20 -21 -28 0
-16 -24 -31 -37 -46 -11 -12 -13 -15 -20 -21 -23 -28 -30 -36 0
-46 -37 -31 -24 -16 -36 -30 -23 -15 -28 -21 -13 -20 -12 -11 0
-11 -12 -13 -15 -17 -20 -21 -23 -25 -28 -30 -32 -36 -38 -47 0
-17 -15 -13 -12 -11 -47 -38 -32 -25 -36 -30 -23 -28 -21 -20 0
-11 -25 -23 -21 -20 -17 -15 -13 -12 -47 -38 -32 -36 -30 -28 0
-20 -21 -23 -25 -11 -28 -30 -32 -12 -36 -38 -13 -47 -15 -17 0
-20 -12 -32 -30 -28 -11 -25 -23 -21 -17 -15 -13 -47 -38 -36 0
-28 -30 -32 -12 -20 -36 -38 -13 -21 -47 -15 -23 -17 -25 -11 0
-28 -21 -13 -38 -36 -20 -12 -32 -30 -11 -25 -23 -17 -15 -47 0
-36 -38 -13 -21 -28 -47 -15 -23 -30 -17 -25 -32 -11 -12 -20 0
-36 -30 -23 -15 -47 -28 -21 -13 -38 -20 -12 -32 -11 -25 -17 0
-47 -15 -23 -30 -36 -17 -25 -32 -38 -11 -12 -13 -20 -21 -28 0
-17 -25 -32 -38 -47 -11 -12 -13 -15 -20 -21 -23 -28 -30 -36 0
-47 -38 -32 -25 -17 -36 -30 -23 -15 -28 -21 -13 -20 -12 -11 0
-11 -12 -13 -15 -18 -20 -21 -23 -26 -28 -30 -33 -36 -39 -48 0
-18 -15 -13 -12 -11 -48 -39 -33 -26 -36 -30 -23 -28 -21 -20 0
-11 -26 -23 -21 -20 -18 -15 -13 -12 -48 -39 -33 -36 -30 -28 0
-20 -21 -23 -26 -11 -28 -30 -33 -12 -36 -39 -13 -48 -15 -18 0
-20 -12 -33 -30 -28 -11 -26 -23 -21 -18 -15 -13 -48 -39 -36 0
-28 -30 -33 -12 -20 -36 -39 -13 -21 -48 -15 -23 -18 -26 -11 0
-28 -21 -13 -39 -36 -20 -12 -33 -30 -11 -26 -23 -18 -15 -48 0
-36 -39 -13 -21 -28 -48 -15 -23 -30 -18 -26 -33 -11 -12 -20 0
-36 -30 -23 -15 -48 -28 -21 -13 -39 -20 -12 -33 -11 -26 -18 0
-48 -15 -23 -30 -36 -18 -26 -33 -39 -11 -12 -13 -20 -21 -28 0
-18 -26 -33 -39 -48 -11 -12 -13 -15 -20 -21 -23 -28 -30 -36 0
-48 -39 -33 -26 -18 -36 -30 -23 -15 -28 -21 -13 -20 -12 -11 0
-11 -12 -13 -15 -19 -20 -21 -23 -27 -28 -30 -34 -36 -40 -49 0
-19 -15 -13 -12 -11 -49 -40 -34 -27 -36 -30 -23 -28 -21 -20 0
-11 -27 -23 -21 -20 -19 -15 -13 -12 -49 -40 -34 -36 -30 -28 0
-20 -21 -23 -27 -11 -28 -30 -34 -12 -36 -40 -13 -49 -15 -19 0
-20 -12 -34 -30 -28 -11 -27 -23 -21 -19 -15 -13 -49 -40 -36 0
-28 -30 -34 -12 -20 -36 -40 -13 -21 -49 -15 -23 -19 -27 -11 0
-28 -21 -13 -40 -36 -20 -12 -34 -30 -11 -27 -23 -19 -15 -49 0
-36 -40 -13 -21 -28 -49 -15 -23 -30 -19 -27 -34 -11 -12 -20 0
-36 -30 -23 -15 -49 -28 -21 -13 -40 -20 -12 -34 -11 -27 -19 0
-49 -15 -23 -30 -36 -19 -27 -34 -40 -11 -12 -13 -20 -21 -28 0
-19 -27 -34 -40 -49 -11 -12 -13 -15 -20 -21 -23 -28 -30 -36 0
-49 -40 -34 -27 -19 -36 -30 -23 -15 -28 -21 -13 -20 -12 -11 0
-11 -12 -13 -16 -17 -20 -21 -24 -25 -28 -31 -32 -37 -38 -50 0
-17 -16 -13 -12 -11 -50 -38 -32 -25 -37 -31 -24 -28 -21 -20 0
-11 -25 -24 -21 -20 -17 -16 -13 -12 -50 -38 -32 -37 -31 -28 0
-20 -21 -24 -25 -11 -28 -31 -32 -12 -37 -38 -13 -50 -16 -17 0
-20 -12 -32 -31 -28 -11 -25 -24 -21 -17 -16 -13 -50 -38 -37 0
-28 -31 -32 -12 -20 -37 -38 -13 -21 -50 -16 -24 -17 -25 -11 0
-28 -21 -13 -38 -37 -20 -12 -32 -31 -11 -25 -24 -17 -16 -50 0
-37 -38 -13 -21 -28 -50 -16 -24 -31 -17 -25 -32 -11 -12 -20 0
-37 -31 -24 -16 -50 -28 -21 -13 -38 -20 -12 -32 -11 -25 -17 0
-50 -16 -24 -31 -37 -17 -25 -32 -38 -11 -12 -13 -20 -21 -28 0
-17 -25 -32 -38 -50 -11 -12 -13 -16 -20 -21 -24 -28 -31 -37 0
-50 -38 -32 -25 -17 -37 -31 -24 -16 -28 -21 -13 -20 -12 -11 0
-11 -12 -13 -16 -18 -20 -21 -24 -26 -28 -31 -33 -37 -39 -51 0
-18 -16 -13 -12 -11 -51 -39 -33 -26 -37 -31 -24 -28 -21 -20 0
-11 -26 -24 -21 -20 -18 -16 -13 -12 -51 -39 -33 -37 -31 -28 0
-20 -21 -24 -26 -11 -28 -31 -33 -12 -37 -39 -13 -51 -16 -18 0
-20 -12 -33 -31 -28 -11 -26 -24 -21 -18 -16 -13 -51 -39 -37 0
-28 -31 -33 -12 -20 -37 -39 -13 -21 -51 -16 -24 -18 -26 -11 0
-28 -21 -13 -39 -37 -20 -12 -33 -31 -11 -26 -24 -18 -16 -51 0
-37 -39 -13 -21 -28 -51 -16 -24 -31 -18 -26 -33 -11 -12 -20 0
-37 -31 -24 -16 -51 -28 -21 -13 -39 -20 -12 -33 -11 -26 -18 0
-51 -16 -24 -31 -37 -18 -26 -33 -39 -11 -12 -13 -20 -21 -28 0
-18 -26 -33 -39 -51 -11 -12 -13 -16 -20 -21 -24 -28 -31 -37 0
-51 -39 -33 -26 -18 -37 -31 -24 -16 -28 -21 -13 -20 -12 -11 0
-11 -12 -13 -16 -19 -20 -21 -24 -27 -28 -31 -34 -37 -40 -52 0
-19 -16 -13 -12 -11 -52 -40 -34 -27 -37 -31 -24 -28 -21 -20 0
-11 -27 -24 -21 -20 -19 -16 -13 -12 -52 -40 -34 -37 -31 -28 0
-20 -21 -24 -27 -11 -28 -31 -34 -12 -37 -40 -13 -52 -16 -19 0
-20 -12 -34 -31 -28 -11 -27 -24 -21 -19 -16 -13 -52 -40 -37 0
-28 -31 -34 -12 -20 -37 -40 -13 -21 -52 -16 -24 -19 -27 -11 0
-28 -21 -13 -40 -37 -20 -12 -34 -31 -11 -27 -24 -19 -16 -52 0
-37 -40 -13 -21 -28 -52 -16 -24 -31 -19 -27 -34 -11 -12 -20 0
-37 -31 -24 -16 -52 -28 -21 -13 -40 -20 -12 -34 -11 -27 -19 0
-52 -16 -24 -31 -37 -19 -27 -34 -40 -11 -12 -13 -20 -21 -28 0
-19 -27 -34 -40 -52 -11 -12 -13 -16 -20 -21 -24 -28 -31 -37 0
-52 -40 -34 -27 -19 -37 -31 -24 -16 -28 -21 -13 -20 -12 -11 0
-11 -12 -13 -17 -18 -20 -21 -25 -26 -28 -32 -33 -38 -39 -53 0
-18 -17 -13 -12 -11 -53 -39 -33 -26 -38 -32 -25 -28 -21 -20 0
-11 -26 -25 -21 -20 -18 -17 -13 -12 -53 -39 -33 -38 -32 -28 0
-20 -21 -25 -26 -11 -28 -32 -33 -12 -38 -39 -13 -53 -17 -18 0
-20 -12 -33 -32 -28 -11 -26 -25 -21 -18 -17 -13 -53 -39 -38 0
-28 -32 -33 -12 -20 -38 -39 -13 -21 -53 -17 -25 -18 -26 -11 0
-28 -21 -13 -39 -38 -20 -12 -33 -32 -11 -26 -25 -18 -17 -53 0
-38 -39 -13 -21 -28 -53 -17 -25 -32 -18 -26 -33 -11 -12 -20 0
-38 -32 -25 -17 -53 -28 -21 -13 -39 -20 -12 -33 -11 -26 -18 0
-53 -17 -25 -32 -38 -18 -26 -33 -39 -11 -12 -13 -20 -21 -28 0
-18 -26 -33 -39 -53 -11 -12 -13 -17 -20 -21 -25 -28 -32 -38 0
-53 -39 -33 -26 -18 -38 -32 -25 -17 -28 -21 -13 -20 -12 -11 0
-11 -12 -13 -17 -19 -20 -21 -25 -27 -28 -32 -34 -38 -40 -54 0
-19 -17 -13 -12 -11 -54 -40 -34 -27 -38 -32 -25 -28 -21 -20 0
-11 -27 -25 -21 -20 -19 -17 -13 -12 -54 -40 -34 -38 -32 -28 0
-20 -21 -25 -27 -11 -28 -32 -34 -12 -38 -40 -13 -54 -17 -19 0
-20 -12 -34 -32 -28 -11 -27 -25 -21 -19 -17 -13 -54 -40 -38 0
-28 -32 -34 -12 -20 -38 -40 -13 -21 -54 -17 -25 -19 -27 -11 0
-28 -21 -13 -40 -38 -20 -12 -34 -32 -11 -27 -25 -19 -17 -54 0
-38 -40 -13 -21 -28 -54 -17 -25 -32 -19 -27 -34 -11 -12 -20 0
-38 -32 -25 -17 -54 -28 -21 -13 -40 -20 -12 -34 -11 -27 -19 0
-54 -17 -25 -32 -38 -19 -27 -34 -40 -11 -12 -13 -20 -21 -28 0
-19 -27 -34 -40 -54 -11 -12 -13 -17 -20 -21 -25 -28 -32 -38 0
-54 -40 -34 -27 -19 -38 -32 -25 -17 -28 -21 -13 -20 -12 -11 0
-11 -12 -13 -18 -19 -20 -21 -26 -27 -28 -33 -34 -39 -40 -55 0
-19 -18 -13 -12 -11 -55 -40 -34 -27 -39 -33 -26 -28 -21 -20 0
-11 -27 -26 -21 -20 -19 -18 -13 -12 -55 -40 -34 -39 -33 -28 0
-20 -21 -26 -27 -11 -28 -33 -34 -12 -39 -40 -13 -55 -18 -19 0
-20 -12 -34 -33 -28 -11 -27 -26 -21 -19 -18 -13 -55 -40 -39 0
-28 -33 -34 -12 -20 -39 -40 -13 -21 -55 -18 -26 -19 -27 -11 0
-28 -21 -13 -40 -39 -20 -12 -34 -33 -11 -27 -26 -19 -18 -55 0
-39 -40 -13 -21 -28 -55 -18 -26 -33 -19 -27 -34 -11 -12 -20 0
-39 -33 -26 -18 -55 -28 -21 -13 -40 -20 -12 -34 -11 -27 -19 0
-55 -18 -26 -33 -39 -19 -27 -34 -40 -11 -12 -13 -20 -21 -28 0
-19 -27 -34 -40 -55 -11 -12 -13 -18 -20 -21 -26 -28 -33 -39 0
-55 -40 -34 -27 -19 -39 -33 -26 -18 -28 -21 -13 -20 -12 -11 0
-11 -12 -14 -15 -16 -20 -22 -23 -24 -29 -30 -31 -41 -42 -46 0
-16 -15 -14 -12 -11 -46 -42 -31 -24 -41 -30 -23 -29 -22 -20 0
-11 -24 -23 -22 -20 -16 -15 -14 -12 -46 -42 -31 -41 -30 -29 0
-20 -22 -23 -24 -11 -29 -30 -31 -12 -41 -42 -14 -46 -15 -16 0
-20 -12 -31 -30 -29 -11 -24 -23 -22 -16 -15 -14 -46 -42 -41 0
-29 -30 -31 -12 -20 -41 -42 -14 -22 -46 -15 -23 -16 -24 -11 0
-29 -22 -14 -42 -41 -20 -12 -31 -30 -11 -24 -23 -16 -15 -46 0
-41 -42 -14 -22 -29 -46 -15 -23 -30 -16 -24 -31 -11 -12 -20 0
-41 -30 -23 -15 -46 -29 -22 -14 -42 -20 -12 -31 -11 -24 -16 0
-46 -15 -23 -30 -41 -16 -24 -31 -42 -11 -12 -14 -20 -22 -29 0
-16 -24 -31 -42 -46 -11 -12 -14 -15 -20 -22 -23 -29 -30 -41 0
-46 -42 -31 -24 -16 -41 -30 -23 -15 -29 -22 -14 -20 -12 -11 0
-11 -12 -14 -15 -17 -20 -22 -23 -25 -29 -30 -32 -41 -43 -47 0
-17 -15 -14 -12 -11 -47 -43 -32 -25 -41 -30 -23 -29 -22 -20 0
-11 -25 -23 -22 -20 -17 -15 -14 -12 -47 -43 -32 -41 -30 -29 0
-20 -22 -23 -25 -11 -29 -30 -32 -12 -41 -43 -14 -47 -15 -17 0
-20 -12 -32 -30 -29 -11 -25 -23 -22 -17 -15 -14 -47 -43 -41 0
-29 -30 -32 -12 -20 -41 -43 -14 -22 -47 -15 -23 -17 -25 -11 0
-29 -22 -14 -43 -41 -20 -12 -32 -30 -11 -25 -23 -17 -15 -47 0
-41 -43 -14 -22 -29 -47 -15 -23 -30 -17 -25 -32 -11 -12 -20 0
-41 -30 -23 -15 -47 -29 -22 -14 -43 -20 -12 -32 -11 -25 -17 0
-47 -15 -23 -30 -41 -17 -25 -32 -43 -11 -12 -14 -20 -22 -29 0
-17 -25 -32 -43 -47 -11 -12 -14 -15 -20 -22 -23 -29 -30 -41 0
-47 -43 -32 -25 -17 -41 -30 -23 -15 -29 -22 -14 -20 -12 -11 0
-11 -12 -14 -15 -18 -20 -22 -23 -26 -29 -30 -33 -41 -44 -48 0
-18 -15 -14 -12 -11 -48 -44 -33 -26 -41 -30 -23 -29 -22 -20 0
-11 -26 -23 -22 -20 -18 -15 -14 -12 -48 -44 -33 -41 -30 -29 0
-20 -22 -23 -26 -11 -29 -30 -33 -12 -41 -44 -14 -48 -15 -18 0
-20 -12 -33 -30 -29 -11 -26 -23 -22 -18 -15 -14 -48 -44 -41 0
-29 -30 -33 -12 -20 -41 -44 -14 -22 -48 -15 -23 -18 -26 -11 0
-29 -22 -14 -44 -41 -20 -12 -33 -30 -11 -26 -23 -18 -15 -48 0
-41 -44 -14 -22 -29 -48 -15 -23 -30 -18 -26 -33 -11 -12 -20 0
-41 -30 -23 -15 -48 -29 -22 -14 -44 -20 -12 -33 -11 -26 -18 0
-48 -15 -23 -30 -41 -18 -26 -33 -44 -11 -12 -14 -20 -22 -29 0
-18 -26 -33 -44 -48 -11 -12 -14 -15 -20 -22 -23 -29 -30 -41 0
-48 -44 -33 -26 -18 -41 -30 -23 -15 -29 -22 -14 -20 -12 -11 0
-11 -12 -14 -15 -19 -20 -22 -23 -27 -29 -30 -34 -41 -45 -49 0
-19 -15 -14 -12 -11 -49 -45 -34 -27 -41 -30 -23 -29 -22 -20 0
-11 -27 -23 -22 -20 -19 -15 -14 -12 -49 -45 -34 -41 -30 -29 0
-20 -22 -23 -27 -11 -29 -30 -34 -12 -41 -45 -14 -49 -15 -19 0
-20 -12 -34 -30 -29 -11 -27 -23 -22 -19 -15 -14 -49 -45 -41 0
-29 -30 -34 -12 -20 -41 -45 -14 -22 -49 -15 -23 -19 -27 -11 0
-29 -22 -14 -45 -41 -20 -12 -34 -30 -11 -27 -23 -19 -15 -49 0
-41 -45 -14 -22 -29 -49 -15 -23 -30 -19 -27 -34 -11 -12 -20 0
-41 -30 -23 -15 -49 -29 -22 -14 -45 -20 -12 -34 -11 -27 -19 0
-49 -15 -23 -30 -41 -19 -27 -34 -45 -11 -12 -14 -20 -22 -29 0
-19 -27 -34 -45 -49 -11 -12 -14 -15 -20 -22 -23 -29 -30 -41 0
-49 -45 -34 -27 -19 -41 -30 -23 -15 -29 -22 -14 -20 -12 -11 0
-11 -12 -14 -16 -17 -20 -22 -24 -25 -29 -31 -32 -42 -43 -50 0
-17 -16 -14 -12 -11 -50 -43 -32 -25 -42 -31 -24 -29 -22 -20 0
-11 -25 -24 -22 -20 -17 -16 -14 -12 -50 -43 -32 -42 -31 -29 0
-20 -22 -24 -25 -11 -29 -31 -32 -12 -42 -43 -14 -50 -16 -17 0
-20 -12 -32 -31 -29 -11 -25 -24 -22 -17 -16 -14 -50 -43 -42 0
-29 -31 -32 -12 -20 -42 -43 -14 -22 -50 -16 -24 -17 -25 -11 0
-29 -22 -14 -43 -42 -20 -12 -32 -31 -11 -25 -24 -17 -16 -50 0
-42 -43 -14 -22 -29 -50 -16 -24 -31 -17 -25 -32 -11 -12 -20 0
-42 -31 -24 -16 -50 -29 -22 -14 -43 -20 -12 -32 -11 -25 -17 0
-50 -16 -24 -31 -42 -17 -25 -32 -43 -11 -12 -14 -20 -22 -29 0
-17 -25 -32 -43 -50 -11 -12 -14 -16 -20 -22 -24 -29 -31 -42 0
-50 -43 -32 -25 -17 -42 -31 -24 -16 -29 -22 -14 -20 -12 -11 0
-11 -12 -14 -16 -18 -20 -22 -24 -26 -29 -31 -33 -42 -44 -51 0
-18 -16 -14 -12 -11 -51 -44 -33 -26 -42 -31 -24 -29 -22 -20 0
-11 -26 -24 -22 -20 -18 -16 -14 -12 -51 -44 -33 -42 -31 -29 0
-20 -22 -24 -26 -11 -29 -31 -33 -12 -42 -44 -14 -51 -16 -18 0
-20 -12 -33 -31 -29 -11 -26 -24 -22 -18 -16 -14 -51 -44 -42 0
-29 -31 -33 -12 -20 -42 -44 -14 -22 -51 -16 -24 -18 -26 -11 0
-29 -22 -14 -44 -42 -20 -12 -33 -31 -11 -26 -24 -18 -16 -51 0
-42 -44 -14 -22 -29 -51 -16 -24 -31 -18 -26 -33 -11 -12 -20 0
-42 -31 -24 -16 -51 -29 -22 -14 -44 -20 -12 -33 -11 -26 -18 0
-51 -16 -24 -31 -42 -18 -26 -33 -44 -11 -12 -14 -20 -22 -29 0
-18 -26 -33 -44 -51 -11 -12 -14 -16 -20 -22 -24 -29 -31 -42 0
-51 -44 -33 -26 -18 -42 -31 -24 -16 -29 -22 -14 -20 -12 -11 0
-11 -12 -14 -16 -19 -20 -22 -24 -27 -29 -31 -34 -42 -45 -52 0
-19 -16 -14 -12 -11 -52 -45 -34 -27 -42 -31 -24 -29 -22 -20 0
-11 -27 -24 -22 -20 -19 -16 -14 -12 -52 -45 -34 -42 -31 -29 0
-20 -22 -24 -27 -11 -29 -31 -34 -12 -42 -45 -14 -52 -16 -19 0
-20 -12 -34 -31 -29 -11 -27 -24 -22 -19 -16 -14 -52 -45 -42 0
-29 -31 -34 -12 -20 -42 -45 -14 -22 -52 -16 -24 -19 -27 -11 0
-29 -22 -14 -45 -42 -20 -12 -34 -31 -11 -27 -24 -19 -16 -52 0
-42 -45 -14 -22 -29 -52 -16 -24 -31 -19 -27 -34 -11 -12 -20 0
-42 -31 -24 -16 -52 -29 -22 -14 -45 -20 -12 -34 -11 -27 -19 0
-52 -16 -24 -31 -42 -19 -27 -34 -45 -11 -12 -14 -20 -22 -29 0
-19 -27 -34 -45 -52 -11 -12 -14 -16 -20 -22 -24 -29 -31 -42 0
-52 -45 -34 -27 -19 -42 -31 -24 -16 -29 -22 -14 -20 -12 -11 0
-11 -12 -14 -17 -18 -20 -22 -25 -26 -29 -32 -33 -43 -44 -53 0
-18 -17 -14 -12 -11 -53 -44 -33 -26 -43 -32 -25 -29 -22 -20 0
-11 -26 -25 -22 -20 -18 -17 -14 -12 -53 -44 -33 -43 -32 -29 0
-20 -22 -25 -26 -11 -29 -32 -33 -12 -43 -44 -14 -53 -17 -18 0
-20 -12 -33 -32 -29 -11 -26 -25 -22 -18 -17 -14 -53 -44 -43 0
-29 -32 -33 -12 -20 -43 -44 -14 -22 -53 -17 -25 -18 -26 -11 0
-29 -22 -14 -44 -43 -20 -12 -33 -32 -11 -26 -25 -18 -17 -53 0
-43 -44 -14 -22 -29 -53 -17 -25 -32 -18 -26 -33 -11 -12 -20 0
-43 -32 -25 -17 -53 -29 -22 -14 -44 -20 -12 -33 -11 -26 -18 0
-53 -17 -25 -32 -43 -18 -26 -33 -44 -11 -12 -14 -20 -22 -29 0
-18 -26 -33 -44 -53 -11 -12 -14 -17 -20 -22 -25 -29 -32 -43 0
-53 -44 -33 -26 -18 -43 -32 -25 -17 -29 -22 -14 -20 -12 -11 0
-11 -12 -14 -17 -19 -20 -22 -25 -27 -29 -32 -34 -43 -45 -54 0
-19 -17 -14 -12 -11 -54 -45 -34 -27 -43 -32 -25 -29 -22 -20 0
-11 -27 -25 -22 -20 -19 -17 -14 -12 -54 -45 -34 -43 -32 -29 0
-20 -22 -25 -27 -11 -29 -32 -34 -12 -43 -45 -14 -54 -17 -19 0
-20 -12 -34 -32 -29 -11 -27 -25 -22 -19 -17 -14 -54 -45 -43 0
-29 -32 -34 -12 -20 -43 -45 -14 -22 -54 -17 -25 -19 -27 -11 0
-29 -22 -14 -45 -43 -20 -12 -34 -32 -11 -27 -25 -19 -17 -54 0
-43 -45 -14 -22 -29 -54 -17 -25 -32 -19 -27 -34 -11 -12 -20 0
-43 -32 -25 -17 -54 -29 -22 -14 -45 -20 -12 -34 -11 -27 -19 0
-54 -17 -25 -32 -43 -19 -27 -34 -45 -11 -12 -14 -20 -22 -29 0
-19 -27 -34 -45 -54 -11 -12 -14 -17 -20 -22 -25 -29 -32 -43 0
-54 -45 -34 -27 -19 -43 -32 -25 -17 -29 -22 -14 -20 -12 -11 0
-11 -12 -14 -18 -19 -20 -22 -26 -27 -29 -33 -34 -44 -45 -55 0
-19 -18 -14 -12 -11 -55 -45 -34 -27 -44 -33 -26 -29 -22 -20 0
-11 -27 -26 -22 -20 -19 -18 -14 -12 -55 -45 -34 -44 -33 -29 0
-20 -22 -26 -27 -11 -29 -33 -34 -12 -44 -45 -14 -55 -18 -19 0
-20 -12 -34 -33 -29 -11 -27 -26 -22 -19 -18 -14 -55 -45 -44 0
-29 -33 -34 -12 -20 -44 -45 -14 -22 -55 -18 -26 -19 -27 -11 0
-29 -22 -14 -45 -44 -20 -12 -34 -33 -11 -27 -26 -19 -18 -55 0
-44 -45 -14 -22 -29 -55 -18 -26 -33 -19 -27 -34 -11 -12 -20 0
-44 -33 -26 -18 -55 -29 -22 -14 -45 -20 -12 -34 -11 -27 -19 0
-55 -18 -26 -33 -44 -19 -27 -34 -45 -11 -12 -14 -20 -22 -29 0
-19 -27 -34 -45 -55 -11 -12 -14 -18 -20 -22 -26 -29 -33 -44 0
-55 -45 -34 -27 -19 -44 -33 -26 -18 -29 -22 -14 -20 -12 -11 0
-11 -12 -15 -16 -17 -20 -23 -24 -25 -30 -31 -32 -46 -47 -50 0
-17 -16 -15 -12 -11 -50 -47 -32 -25 -46 -31 -24 -30 -23 -20 0
-11 -25 -24 -23 -20 -17 -16 -15 -12 -50 -47 -32 -46 -31 -30 0
-20 -23 -24 -25 -11 -30 -31 -32 -12 -46 -47 -15 -50 -16 -17 0
-20 -12 -32 -31 -30 -11 -25 -24 -23 -17 -16 -15 -50 -47 -46 0
-30 -31 -32 -12 -20 -46 -47 -15 -23 -50 -16 -24 -17 -25 -11 0
-30 -23 -15 -47 -46 -20 -12 -32 -31 -11 -25 -24 -17 -16 -50 0
-46 -47 -15 -23 -30 -50 -16 -24 -31 -17 -25 -32 -11 -12 -20 0
-46 -31 -24 -16 -50 -30 -23 -15 -47 -20 -12 -32 -11 -25 -17 0
-50 -16 -24 -31 -46 -17 -25 -32 -47 -11 -12 -15 -20 -23 -30 0
-17 -25 -32 -47 -50 -11 -12 -15 -16 -20 -23 -24 -30 -31 -46 0
-50 -47 -32 -25 -17 -46 -31 -24 -16 -30 -23 -15 -20 -12 -11 0
-11 -12 -15 -16 -18 -20 -23 -24 -26 -30 -31 -33 -46 -48 -51 0
-18 -16 -15 -12 -11 -51 -48 -33 -26 -46 -31 -24 -30 -23 -20 0
-11 -26 -24 -23 -20 -18 -16 -15 -12 -51 -48 -33 -46 -31 -30 0
-20 -23 -24 -26 -11 -30 -31 -33 -12 -46 -48 -15 -51 -16 -18 0
-20 -12 -33 -31 -30 -11 -26 -24 -23 -18 -16 -15 -51 -48 -46 0
-30 -31 -33 -12 -20 -46 -48 -15 -23 -51 -16 -24 -18 -26 -11 0
-30 -23 -15 -48 -46 -20 -12 -33 -31 -11 -26 -24 -18 -16 -51 0
-46 -48 -15 -23 -30 -51 -16 -24 -31 -18 -26 -33 -11 -12 -20 0
-46 -31 -24 -16 -51 -30 -23 -15 -48 -20 -12 -33 -11 -26 -18 0
-51 -16 -24 -31 -46 -18 -26 -33 -48 -11 -12 -15 -20 -23 -30 0
-18 -26 -33 -48 -51 -11 -12 -15 -16 -20 -23 -24 -30 -31 -46 0
-51 -48 -33 -26 -18 -46 -31 -24 -16 -30 -23 -15 -20 -12 -11 0
-11 -12 -15 -16 -19 -20 -23 -24 -27 -30 -31 -34 -46 -49 -52 0
-19 -16 -15 -12 -11 -52 -49 -34 -27 -46 -31 -24 -30 -23 -20 0
-11 -27 -24 -23 -20 -19 -16 -15 -12 -52 -49 -34 -46 -31 -30 0
-20 -23 -24 -27 -11 -30 -31 -34 -12 -46 -49 -15 -52 -16 -19 0
-20 -12 -34 -31 -30 -11 -27 -24 -23 -19 -16 -15 -52 -49 -46 0
-30 -31 -34 -12 -20 -46 -49 -15 -23 -52 -16 -24 -19 -27 -11 0
-30 -23 -15 -49 -46 -20 -12 -34 -31 -11 -27 -24 -19 -16 -52 0
-46 -49 -15 -23 -30 -52 -16 -24 -31 -19 -27 -34 -11 -12 -20 0
-46 -31 -24 -16 -52 -30 -23 -15 -49 -20 -12 -34 -11 -27 -19 0
-52 -16 -24 -31 -46 -19 -27 -34 -49 -11 -12 -15 -20 -23 -30 0
-19 -27 -34 -49 -52 -11 -12 -15 -16 -20 -23 -24 -30 -31 -46 0
-52 -49 -34 -27 -19 -46 -31 -24 -16 -30 -23 -15 -20 -12 -11 0
-11 -12 -15 -17 -18 -20 -23 -25 -26 -30 -32 -33 -47 -48 -53 0
-18 -17 -15 -12 -11 -53 -48 -33 -26 -47 -32 -25 -30 -23 -20 0
-11 -26 -25 -23 -20 -18 -17 -15 -12 -53 -48 -33 -47 -32 -30 0
-20 -23 -25 -26 -11 -30 -32 -33 -12 -47 -48 -15 -53 -17 -18 0
-20 -12 -33 -32 -30 -11 -26 -25 -23 -18 -17 -15 -53 -48 -47 0
-30 -32 -33 -12 -20 -47 -48 -15 -23 -53 -17 -25 -18 -26 -11 0
-30 -23 -15 -48 -47 -20 -12 -33 -32 -11 -26 -25 -18 -17 -53 0
-47 -48 -15 -23 -30 -53 -17 -25 -32 -18 -26 -33 -11 -12 -20 0
-47 -32 -25 -17 -53 -30 -23 -15 -48 -20 -12 -33 -11 -26 -18 0
-53 -17 -25 -32 -47 -18 -26 -33 -48 -11 -12 -15 -20 -23 -30 0
-18 -26 -33 -48 -53 -11 -12 -15 -17 -20 -23 -25 -30 -32 -47 0
-53 -48 -33 -26 -18 -47 -32 -25 -17 -30 -23 -15 -20 -12 -11 0
-11 -12 -15 -17 -19 -20 -23 -25 -27 -30 -32 -34 -47 -49 -54 0
-19 -17 -15 -12 -11 -54 -49 -34 -27 -47 -32 -25 -30 -23 -20 0
-11 -27 -25 -23 -20 -19 -17 -15 -12 -54 -49 -34 -47 -32 -30 0
-20 -23 -25 -27 -11 -30 -32 -34 -12 -47 -49 -15 -54 -17 -19 0
-20 -12 -34 -32 -30 -11 -27 -25 -23 -19 -17 -15 -54 -49 -47 0
-30 -32 -34 -12 -20 -47 -49 -15 -23 -54 -17 -25 -19 -27 -11 0
-30 -23 -15 -49 -47 -20 -12 -34 -32 -11 -27 -25 -19 -17 -54 0
-47 -49 -15 -23 -30 -54 -17 -25 -32 -19 -27 -34 -11 -12 -20 0
-47 -32 -25 -17 -54 -30 -23 -15 -49 -20 -12 -34 -11 -27 -19 0
-54 -17 -25 -32 -47 -19 -27 -34 -49 -11 -12 -15 -20 -23 -30 0
-19 -27 -34 -49 -54 -11 -12 -15 -17 -20 -23 -25 -30 -32 -47 0
-54 -49 -34 -27 -19 -47 -32 -25 -17 -30 -23 -15 -20 -12 -11 0
-11 -12 -15 -18 -19 -20 -23 -26 -27 -30 -33 -34 -48 -49 -55 0
-19 -18 -15 -12 -11 -55 -49 -34 -27 -48 -33 -26 -30 -23 -20 0
-11 -27 -26 -23 -20 -19 -18 -15 -12 -55 -49 -34 -48 -33 -30 0
-20 -23 -26 -27 -11 -30 -33 -34 -12 -48 -49 -15 -55 -18 -19 0
-20 -12 -34 -33 -30 -11 -27 -26 -23 -19 -18 -15 -55 -49 -48 0
-30 -33 -34 -12 -20 -48 -49 -15 -23 -55 -18 -26 -19 -27 -11 0
-30 -23 -15 -49 -48 -20 -12 -34 -33 -11 -27 -26 -19 -18 -55 0
-48 -49 -15 -23 -30 -55 -18 -26 -33 -19 -27 -34 -11 -12 -20 0
-48 -33 -26 -18 -55 -30 -23 -15 -49 -20 -12 -34 -11 -27 -19 0
-55 -18 -26 -33 -48 -19 -27 -34 -49 -11 -12 -15 -20 -23 -30 0
-19 -27 -34 -49 -55 -11 -12 -15 -18 -20 -23 -26 -30 -33 -48 0
-55 -49 -34 -27 -19 -48 -33 -26 -18 -30 -23 -15 -20 -12 -11 0
-11 -12 -16 -17 -18 -20 -24 -25 -26 -31 -32 -33 -50 -51 -53 0
-18 -17 -16 -12 -11 -53 -51 -33 -26 -50 -32 -25 -31 -24 -20 0
-11 -26 -25 -24 -20 -18 -17 -16 -12 -53 -51 -33 -50 -32 -31 0
-20 -24 -25 -26 -11 -31 -32 -33 -12 -50 -51 -16 -53 -17 -18 0
-20 -12 -33 -32 -31 -11 -26 -25 -24 -18 -17 -16 -53 -51 -50 0
-31 -32 -33 -12 -20 -50 -51 -16 -24 -53 -17 -25 -18 -26 -11 0
-31 -24 -16 -51 -50 -20 -12 -33 -32 -11 -26 -25 -18 -17 -53 0
-50 -51 -16 -24 -31 -53 -17 -25 -32 -18 -26 -33 -11 -12 -20 0
-50 -32 -25 -17 -53 -31 -24 -16 -51 -20 -12 -33 -11 -26 -18 0
-53 -17 -25 -32 -50 -18 -26 -33 -51 -11 -12 -16 -20 -24 -31 0
-18 -26 -33 -51 -53 -11 -12 -16 -17 -20 -24 -25 -31 -32 -50 0
-53 -51 -33 -26 -18 -50 -32 -25 -17 -31 -24 -16 -20 -12 -11 0
-11 -12 -16 -17 -19 -20 -24 -25 -27 -31 -32 -34 -50 -52 -54 0
-19 -17 -16 -12 -11 -54 -52 -34 -27 -50 -32 -25 -31 -24 -20 0
-11 -27 -25 -24 -20 -19 -17 -16 -12 -54 -52 -34 -50 -32 -31 0
-20 -24 -25 -27 -11 -31 -32 -34 -12 -50 -52 -16 -54 -17 -19 0
-20 -12 -34 -32 -31 -11 -27 -25 -24 -19 -17 -16 -54 -52 -50 0
-31 -32 -34 -12 -20 -50 -52 -16 -24 -54 -17 -25 -19 -27 -11 0
-31 -24 -16 -52 -50 -20 -12 -34 -32 -11 -27 -25 -19 -17 -54 0
-50 -52 -16 -24 -31 -54 -17 -25 -32 -19 -27 -34 -11 -12 -20 0
-50 -32 -25 -17 -54 -31 -24 -16 -52 -20 -12 -34 -11 -27 -19 0
-54 -17 -25 -32 -50 -19 -27 -34 -52 -11 -12 -16 -20 -24 -31 0
-19 -27 -34 -52 -54 -11 -12 -16 -17 -20 -24 -25 -31 -32 -50 0
-54 -52 -34 -27 -19 -50 -32 -25 -17 -31 -24 -16 -20 -12 -11 0
-11 -12 -16 -18 -19 -20 -24 -26 -27 -31 -33 -34 -51 -52 -55 0
-19 -18 -16 -12 -11 -55 -52 -34 -27 -51 -33 -26 -31 -24 -20 0
-11 -27 -26 -24 -20 -19 -18 -16 -12 -55 -52 -34 -51 -33 -31 0
-20 -24 -26 -27 -11 -31 -33 -34 -12 -51 -52 -16 -55 -18 -19 0
-20 -12 -34 -33 -31 -11 -27 -26 -24 -19 -18 -16 -55 -52 -51 0
-31 -33 -34 -12 -20 -51 -52 -16 -24 -55 -18 -26 -19 -27 -11 0
-31 -24 -16 -52 -51 -20 -12 -34 -33 -11 -27 -26 -19 -18 -55 0
-51 -52 -16 -24 -31 -55 -18 -26 -33 -19 -27 -34 -11 -12 -20 0
-51 -33 -26 -18 -55 -31 -24 -16 -52 -20 -12 -34 -11 -27 -19 0
-55 -18 -26 -33 -51 -19 -27 -34 -52 -11 -12 -16 -20 -24 -31 0
-19 -27 -34 -52 -55 -11 -12 -16 -18 -20 -24 -26 -31 -33 -51 0
-55 -52 -34 -27 -19 -51 -33 -26 -18 -31 -24 -16 -20 -12 -11 0
-11 -12 -17 -18 -19 -20 -25 -26 -27 -32 -33 -34 -53 -54 -55 0
-19 -18 -17 -12 -11 -55 -54 -34 -27 -53 -33 -26 -32 -25 -20 0
-11 -27 -26 -25 -20 -19 -18 -17 -12 -55 -54 -34 -53 -33 -32 0
-20 -25 -26 -27 -11 -32 -33 -34 -12 -53 -54 -17 -55 -18 -19 0
-20 -12 -34 -33 -32 -11 -27 -26 -25 -19 -18 -17 -55 -54 -53 0
-32 -33 -34 -12 -20 -53 -54 -17 -25 -55 -18 -26 -19 -27 -11 0
-32 -25 -17 -54 -53 -20 -12 -34 -33 -11 -27 -26 -19 -18 -55 0
-53 -54 -17 -25 -32 -55 -18 -26 -33 -19 -27 -34 -11 -12 -20 0
-53 -33 -26 -18 -55 -32 -25 -17 -54 -20 -12 -34 -11 -27 -19 0
-55 -18 -26 -33 -53 -19 -27 -34 -54 -11 -12 -17 -20 -25 -32 0
-19 -27 -34 -54 -55 -11 -12 -17 -18 -20 -25 -26 -32 -33 -53 0
-55 -54 -34 -27 -19 -53 -33 -26 -18 -32 -25 -17 -20 -12 -11 0
-11 -13 -14 -15 -16 -21 -22 -23 -24 -35 -36 -37 -41 -42 -46 0
-16 -15 -14 -13 -11 -46 -42 -37 -24 -41 -36 -23 -35 -22 -21 0
-11 -24 -23 -22 -21 -16 -15 -14 -13 -46 -42 -37 -41 -36 -35 0
-21 -22 -23 -24 -11 -35 -36 -37 -13 -41 -42 -14 -46 -15 -16 0
-21 -13 -37 -36 -35 -11 -24 -23 -22 -16 -15 -14 -46 -42 -41 0
-35 -36 -37 -13 -21 -41 -42 -14 -22 -46 -15 -23 -16 -24 -11 0
-35 -22 -14 -42 -41 -21 -13 -37 -36 -11 -24 -23 -16 -15 -46 0
-41 -42 -14 -22 -35 -46 -15 -23 -36 -16 -24 -37 -11 -13 -21 0
-41 -36 -23 -15 -46 -35 -22 -14 -42 -21 -13 -37 -11 -24 -16 0
-46 -15 -23 -36 -41 -16 -24 -37 -42 -11 -13 -14 -21 -22 -35 0
-16 -24 -37 -42 -46 -11 -13 -14 -15 -21 -22 -23 -35 -36 -41 0
-46 -42 -37 -24 -16 -41 -36 -23 -15 -35 -22 -14 -21 -13 -11 0
-11 -13 -14 -15 -17 -21 -22 -23 -25 -35 -36 -38 -41 -43 -47 0
-17 -15 -14 -13 -11 -47 -43 -38 -25 -41 -36 -23 -35 -22 -21 0
-11 -25 -23 -22 -21 -17 -15 -14 -13 -47 -43 -38 -41 -36 -35 0
-21 -22 -23 -25 -11 -35 -36 -38 -13 -41 -43 -14 -47 -15 -17 0
-21 -13 -38 -36 -35 -11 -25 -23 -22 -17 -15 -14 -47 -43 -41 0
-35 -36 -38 -13 -21 -41 -43 -14 -22 -47 -15 -23 -17 -25 -11 0
-35 -22 -14 -43 -41 -21 -13 -38 -36 -11 -25 -23 -17 -15 -47 0
-41 -43 -14 -22 -35 -47 -15 -23 -36 -17 -25 -38 -11 -13 -21 0
-41 -36 -23 -15 -47 -35 -22 -14 -43 -21 -13 -38 -11 -25 -17 0
-47 -15 -23 -36 -41 -17 -25 -38 -43 -11 -13 -14 -21 -22 -35 0
-17 -25 -38 -43 -47 -11 -13 -14 -15 -21 -22 -23 -35 -36 -41 0
-47 -43 -38 -25 -17 -41 -36 -23 -15 -35 -22 -14 -21 -13 -11 0
-11 -13 -14 -15 -18 -21 -22 -23 -26 -35 -36 -39 -41 -44 -48 0
-18 -15 -14 -13 -11 -48 -44 -39 -26 -41 -36 -23 -35 -22 -21 0
-11 -26 -23 -22 -21 -18 -15 -14 -13 -48 -44 -39 -41 -36 -35 0
-21 -22 -23 -26 -11 -35 -36 -39 -13 -41 -44 -14 -48 -15 -18 0
-21 -13 -39 -36 -35 -11 -26 -23 -22 -18 -15 -14 -48 -44 -41 0
-35 -36 -39 -13 -21 -41 -44 -14 -22 -48 -15 -23 -18 -26 -11 0
-35 -22 -14 -44 -41 -21 -13 -39 -36 -11 -26 -23 -18 -15 -48 0
-41 -44 -14 -22 -35 -48 -15 -23 -36 -18 -26 -39 -11 -13 -21 0
-41 -36 -23 -15 -48 -35 -22 -14 -44 -21 -13 -39 -11 -26 -18 0
-48 -15 -23 -36 -41 -18 -26 -39 -44 -11 -13 -14 -21 -22 -35 0
-18 -26 -39 -44 -48 -11 -13 -14 -15 -21 -22 -23 -35 -36 -41 0
-48 -44 -39 -26 -18 -41 -36 -23 -15 -35 -22 -14 -21 -13 -11 0
-11 -13 -14 -15 -19 -21 -22 -23 -27 -35 -36 -40 -41 -45 -49 0
-19 -15 -14 -13 -11 -49 -45 -40 -27 -41 -36 -23 -35 -22 -21 0
-11 -27 -23 -22 -21 -19 -15 -14 -13 -49 -45 -40 -41 -36 -35 0
-21 -22 -23 -27 -11 -35 -36 -40 -13 -41 -45 -14 -49 -15 -19 0
-21 -13 -40 -36 -35 -11 -27 -23 -22 -19 -15 -14 -49 -45 -41 0
-35 -36 -40 -13 -21 -41 -45 -14 -22 -49 -15 -23 -19 -27 -11 0
-35 -22 -14 -45 -41 -21 -13 -40 -36 -11 -27 -23 -19 -15 -49 0
-41 -45 -14 -22 -35 -49 -15 -23 -36 -19 -27 -40 -11 -13 -21 0
-41 -36 -23 -15 -49 -35 -22 -14 -45 -21 -13 -40 -11 -27 -19 0
-49 -15 -23 -36 -41 -19 -27 -40 -45 -11 -13 -14 -21 -22 -35 0
-19 -27 -40 -45 -49 -11 -13 -14 -15 -21 -22 -23 -35 -36 -41 0
-49 -45 -40 -27 -19 -41 -36 -23 -15 -35 -22 -14 -21 -13 -11 0
-11 -13 -14 -16 -17 -21 -22 -24 -25 -35 -37 -38 -42 -43 -50 0
-17 -16 -14 -13 -11 -50 -43 -38 -25 -42 -37 -24 -35 -22 -21 0
-11 -25 -24 -22 -21 -17 -16 -14 -13 -50 -43 -38 -42 -37 -35 0
-21 -22 -24 -25 -11 -35 -37 -38 -13 -42 -43 -14 -50 -16 -17 0
-21 -13 -38 -37 -35 -11 -25 -24 -22 -17 -16 -14 -50 -43 -42 0
-35 -37 -38 -13 -21 -42 -43 -14 -22 -50 -16 -24 -17 -25 -11 0
-35 -22 -14 -43 -42 -21 -13 -38 -37 -11 -25 -24 -17 -16 -50 0
-42 -43 -14 -22 -35 -50 -16 -24 -37 -17 -25 -38 -11 -13 -21 0
-42 -37 -24 -16 -50 -35 -22 -14 -43 -21 -13 -38 -11 -25 -17 0
-50 -16 -24 -37 -42 -17 -25 -38 -43 -11 -13 -14 -21 -22 -35 0
-17 -25 -38 -43 -50 -11 -13 -14 -16 -21 -22 -24 -35 -37 -42 0
-50 -43 -38 -25 -17 -42 -37 -24 -16 -35 -22 -14 -21 -13 -11 0
-11 -13 -14 -16 -18 -21 -22 -24 -26 -35 -37 -39 -42 -44 -51 0
-18 -16 -14 -13 -11 -51 -44 -39 -26 -42 -37 -24 -35 -22 -21 0
-11 -26 -24 -22 -21 -18 -16 -14 -13 -51 -44 -39 -42 -37 -35 0
-21 -22 -24 -26 -11 -35 -37 -39 -13 -42 -44 -14 -51 -16 -18 0
-21 -13 -39 -37 -35 -11 -26 -24 -22 -18 -16 -14 -51 -44 -42 0
-35 -37 -39 -13 -21 -42 -44 -14 -22 -51 -16 -24 -18 -26 -11 0
-35 -22 -14 -44 -42 -21 -13 -39 -37 -11 -26 -24 -18 -16 -51 0
-42 -44 -14 -22 -35 -51 -16 -24 -37 -18 -26 -39 -11 -13 -21 0
-42 -37 -24 -16 -51 -35 -22 -14 -44 -21 -13 -39 -11 -26 -18 0
-51 -16 -24 -37 -42 -18 -26 -39 -44 -11 -13 -14 -21 -22 -35 0
-18 -26 -39 -44 -51 -11 -13 -14 -16 -21 -22 -24 -35 -37 -42 0
-51 -44 -39 -26 -18 -42 -37 -24 -16 -35 -22 -14 -21 -13 -11 0
-11 -13 -14 -16 -19 -21 -22 -24 -27 -35 -37 -40 -42 -45 -52 0
-19 -16 -14 -13 -11 -52 -45 -40 -27 -42 -37 -24 -35 -22 -21 0
-11 -27 -24 -22 -21 -19 -16 -14 -13 -52 -45 -40 -42 -37 -35 0
-21 -22 -24 -27 -11 -35 -37 -40 -13 -42 -45 -14 -52 -16 -19 0
-21 -13 -40 -37 -35 -11 -27 -24 -22 -19 -16 -14 -52 -45 -42 0
-35 -37 -40 -13 -21 -42 -45 -14 -22 -52 -16 -24 -19 -27 -11 0
-35 -22 -14 -45 -42 -21 -13 -40 -37 -11 -27 -24 -19 -16 -52 0
-42 -45 -14 -22 -35 -52 -16 -24 -37 -19 -27 -40 -11 -13 -21 0
-42 -37 -24 -16 -52 -35 -22 -14 -45 -21 -13 -40 -11 -27 -19 0
-52 -16 -24 -37 -42 -19 -27 -40 -45 -11 -13 -14 -21 -22 -35 0
-19 -27 -40 -45 -52 -11 -13 -14 -16 -21 -22 -24 -35 -37 -42 0
-52 -45 -40 -27 -19 -42 -37 -24 -16 -35 -22 -14 -21 -13 -11 0
-11 -13 -14 -17 -18 -21 -22 -25 -26 -35 -38 -39 -43 -44 -53 0
-18 -17 -14 -13 -11 -53 -44 -39 -26 -43 -38 -25 -35 -22 -21 0
-11 -26 -25 -22 -21 -18 -17 -14 -13 -53 -44 -39 -43 -38 -35 0
-21 -22 -25 -26 -11 -35 -38 -39 -13 -43 -44 -14 -53 -17 -18 0
-21 -13 -39 -38 -35 -11 -26 -25 -22 -18 -17 -14 -53 -44 -43 0
-35 -38 -39 -13 -21 -43 -44 -14 -22 -53 -17 -25 -18 -26 -11 0
-35 -22 -14 -44 -43 -21 -13 -39 -38 -11 -26 -25 -18 -17 -53 0
-43 -44 -14 -22 -35 -53 -17 -25 -38 -18 -26 -39 -11 -13 -21 0
-43 -38 -25 -17 -53 -35 -22 -14 -44 -21 -13 -39 -11 -26 -18 0
-53 -17 -25 -38 -43 -18 -26 -39 -44 -11 -13 -14 -21 -22 -35 0
-18 -26 -39 -44 -53 -11 -13 -14 -17 -21 -22 -25 -35 -38 -43 0
-53 -44 -39 -26 -18 -43 -38 -25 -17 -35 -22 -14 -21 -13 -11 0
-11 -13 -14 -17 -19 -21 -22 -25 -27 -35 -38 -40 -43 -45 -54 0
-19 -17 -14 -13 -11 -54 -45 -40 -27 -43 -38 -25 -35 -22 -21 0
-11 -27 -25 -22 -21 -19 -17 -14 -13 -54 -45 -40 -43 -38 -35 0
-21 -22 -25 -27 -11 -35 -38 -40 -13 -43 -45 -14 -54 -17 -19 0
-21 -13 -40 -38 -35 -11 -27 -25 -22 -19 -17 -14 -54 -45 -43 0
-35 -38 -40 -13 -21 -43 -45 -14 -22 -54 -17 -25 -19 -27 -11 0
-35 -22 -14 -45 -43 -21 -13 -40 -38 -11 -27 -25 -19 -17 -54 0
-43 -45 -14 -22 -35 -54 -17 -25 -38 -19 -27 -40 -11 -13 -21 0
-43 -38 -25 -17 -54 -35 -22 -14 -45 -21 -13 -40 -11 -27 -19 0
-54 -17 -25 -38 -43 -19 -27 -40 -45 -11 -13 -14 -21 -22 -35 0
-19 -27 -40 -45 -54 -11 -13 -14 -17 -21 -22 -25 -35 -38 -43 0
-54 -45 -40 -27 -19 -43 -38 -25 -17 -35 -22 -14 -21 -13 -11 0
-11 -13 -14 -18 -19 -21 -22 -26 -27 -35 -39 -40 -44 -45 -55 0
-19 -18 -14 -13 -11 -55 -45 -40 -27 -44 -39 -26 -35 -22 -21 0
-11 -27 -26 -22 -21 -19 -18 -14 -13 -55 -45 -40 -44 -39 -35 0
-21 -22 -26 -27 -11 -35 -39 -40 -13 -44 -45 -14 -55 -18 -19 0
-21 -13 -40 -39 -35 -11 -27 -26 -22 -19 -18 -14 -55 -45 -44 0
-35 -39 -40 -13 -21 -44 -45 -14 -22 -55 -18 -26 -19 -27 -11 0
-35 -22 -14 -45 -44 -21 -13 -40 -39 -11 -27 -26 -19 -18 -55 0
-44 -45 -14 -22 -35 -55 -18 -26 -39 -19 -27 -40 -11 -13 -21 0
-44 -39 -26 -18 -55 -35 -22 -14 -45 -21 -13 -40 -11 -27 -19 0
-55 -18 -26 -39 -44 -19 -27 -40 -45 -11 -13 -14 -21 -22 -35 0
-19 -27 -40 -45 -55 -11 -13 -14 -18 -21 -22 -26 -35 -39 -44 0
-55 -45 -40 -27 -19 -44 -39 -26 -18 -35 -22 -14 -21 -13 -11 0
-11 -13 -15 -16 -17 -21 -23 -24 -25 -36 -37 -38 -46 -47 -50 0
-17 -16 -15 -13 -11 -50 -47 -38 -25 -46 -37 -24 -36 -23 -21 0
-11 -25 -24 -23 -21 -17 -16 -15 -13 -50 -47 -38 -46 -37 -36 0
-21 -23 -24 -25 -11 -36 -37 -38 -13 -46 -47 -15 -50 -16 -17 0
-21 -13 -38 -37 -36 -11 -25 -24 -23 -17 -16 -15 -50 -47 -46 0
-36 -37 -38 -13 -21 -46 -47 -15 -23 -50 -16 -24 -17 -25 -11 0
-36 -23 -15 -47 -46 -21 -13 -38 -37 -11 -25 -24 -17 -16 -50 0
-46 -47 -15 -23 -36 -50 -16 -24 -37 -17 -25 -38 -11 -13 -21 0
-46 -37 -24 -16 -50 -36 -23 -15 -47 -21 -13 -38 -11 -25 -17 0
-50 -16 -24 -37 -46 -17 -25 -38 -47 -11 -13 -15 -21 -23 -36 0
-17 -25 -38 -47 -50 -11 -13 -15 -16 -21 -23 -24 -36 -37 -46 0
-50 -47 -38 -25 -17 -46 -37 -24 -16 -36 -23 -15 -21 -13 -11 0
-11 -13 -15 -16 -18 -21 -23 -24 -26 -36 -37 -39 -46 -48 -51 0
-18 -16 -15 -13 -11 -51 -48 -39 -26 -46 -37 -24 -36 -23 -21 0
-11 -26 -24 -23 -21 -18 -16 -15 -13 -51 -48 -39 -46 -37 -36 0
-21 -23 -24 -26 -11 -36 -37 -39 -13 -46 -48 -15 -51 -16 -18 0
-21 -13 -39 -37 -36 -11 -26 -24 -23 -18 -16 -15 -51 -48 -46 0
-36 -37 -39 -13 -21 -46 -48 -15 -23 -51 -16 -24 -18 -26 -11 0
-36 -23 -15 -48 -46 -21 -13 -39 -37 -11 -26 -24 -18 -16 -51 0
-46 -48 -15 -23 -36 -51 -16 -24 -37 -18 -26 -39 -11 -13 -21 0
-46 -37 -24 -16 -51 -36 -23 -15 -48 -21 -13 -39 -11 -26 -18 0
-51 -16 -24 -37 -46 -18 -26 -39 -48 -11 -13 -15 -21 -23 -36 0
-18 -26 -39 -48 -51 -11 -13 -15 -16 -21 -23 -24 -36 -37 -46 0
-51 -48 -39 -26 -18 -46 -37 -24 -16 -36 -23 -15 -21 -13 -11 0
-11 -13 -15 -16 -19 -21 -23 -24 -27 -36 -37 -40 -46 -49 -52 0
-19 -16 -15 -13 -11 -52 -49 -40 -27 -46 -37 -24 -36 -23 -21 0
-11 -27 -24 -23 -21 -19 -16 -15 -13 -52 -49 -40 -46 -37 -36 0
-21 -23 -24 -27 -11 -36 -37 -40 -13 -46 -49 -15 -52 -16 -19 0
-21 -13 -40 -37 -36 -11 -27 -24 -23 -19 -16 -15 -52 -49 -46 0
-36 -37 -40 -13 -21 -46 -49 -15 -23 -52 -16 -24 -19 -27 -11 0
-36 -23 -15 -49 -46 -21 -13 -40 -37 -11 -27 -24 -19 -16 -52 0
-46 -49 -15 -23 -36 -52 -16 -24 -37 -19 -27 -40 -11 -13 -21 0
-46 -37 -24 -16 -52 -36 -23 -15 -49 -21 -13 -40 -11 -27 -19 0
-52 -16 -24 -37 -46 -19 -27 -40 -49 -11 -13 -15 -21 -23 -36 0
-19 -27 -40 -49 -52 -11 -13 -15 -16 -21 -23 -24 -36 -37 -46 0
-52 -49 -40 -27 -19 -46 -37 -24 -16 -36 -23 -15 -21 -13 -11 0
-11 -13 -15 -17 -18 -21 -23 -25 -26 -36 -38 -39 -47 -48 -53 0
-18 -17 -15 -13 -11 -53 -48 -39 -26 -47 -38 -25 -36 -23 -21 0
-11 -26 -25 -23 -21 -18 -17 -15 -13 -53 -48 -39 -47 -38 -36 0
-21 -23 -25 -26 -11 -36 -38 -39 -13 -47 -48 -15 -53 -17 -18 0
-21 -13 -39 -38 -36 -11 -26 -25 -23 -18 -17 -15 -53 -48 -47 0
-36 -38 -39 -13 -21 -47 -48 -15 -23 -53 -17 -25 -18 -26 -11 0
-36 -23 -15 -48 -47 -21 -13 -39 -38 -11 -26 -25 -18 -17 -53 0
-47 -48 -15 -23 -36 -53 -17 -25 -38 -18 -26 -39 -11 -13 -21 0
-47 -38 -25 -17 -53 -36 -23 -15 -48 -21 -13 -39 -11 -26 -18 0
-53 -17 -25 -38 -47 -18 -26 -39 -48 -11 -13 -15 -21 -23 -36 0
-18 -26 -39 -48 -53 -11 -13 -15 -17 -21 -23 -25 -36 -38 -47 0
-53 -48 -39 -26 -18 -47 -38 -25 -17 -36 -23 -15 -21 -13 -11 0
-11 -13 -15 -17 -19 -21 -23 -25 -27 -36 -38 -40 -47 -49 -54 0
-19 -17 -15 -13 -11 -54 -49 -40 -27 -47 -38 -25 -36 -23 -21 0
-11 -27 -25 -23 -21 -19 -17 -15 -13 -54 -49 -40 -47 -38 -36 0
-21 -23 -25 -27 -11 -36 -38 -40 -13 -47 -49 -15 -54 -17 -19 0
-21 -13 -40 -38 -36 -11 -27 -25 -23 -19 -17 -15 -54 -49 -47 0
-36 -38 -40 -13 -21 -47 -49 -15 -23 -54 -17 -25 -19 -27 -11 0
-36 -23 -15 -49 -47 -21 -13 -40 -38 -11 -27 -25 -19 -17 -54 0
-47 -49 -15 -23 -36 -54 -17 -25 -38 -19 -27 -40 -11 -13 -21 0
-47 -38 -25 -17 -54 -36 -23 -15 -49 -21 -13 -40 -11 -27 -19 0
-54 -17 -25 -38 -47 -19 -27 -40 -49 -11 -13 -15 -21 -23 -36 0
-19 -27 -40 -49 -54 -11 -13 -15 -17 -21 -23 -25 -36 -38 -47 0
-54 -49 -40 -27 -19 -47 -38 -25 -17 -36 -23 -15 -21 -13 -11 0
-11 -13 -15 -18 -19 -21 -23 -26 -27 -36 -39 -40 -48 -49 -55 0
-19 -18 -15 -13 -11 -55 -49 -40 -27 -48 -39 -26 -36 -23 -21 0
-11 -27 -26 -23 -21 -19 -18 -15 -13 -55 -49 -40 -48 -39 -36 0
-21 -23 -26 -27 -11 -36 -39 -40 -13 -48 -49 -15 -55 -18 -19 0
-21 -13 -40 -39 -36 -11 -27 -26 -23 -19 -18 -15 -55 -49 -48 0
-36 -39 -40 -13 -21 -48 -49 -15 -23 -55 -18 -26 -19 -27 -11 0
-36 -23 -15 -49 -48 -21 -13 -40 -39 -11 -27 -26 -19 -18 -55 0
-48 -49 -15 -23 -36 -55 -18 -26 -39 -19 -27 -40 -11 -13 -21 0
-48 -39 -26 -18 -55 -36 -23 -15 -49 -21 -13 -40 -11 -27 -19 0
-55 -18 -26 -39 -48 -19 -27 -40 -49 -11 -13 -15 -21 -23 -36 0
-19 -27 -40 -49 -55 -11 -13 -15 -18 -21 -23 -26 -36 -39 -48 0
-55 -49 -40 -27 -19 -48 -39 -26 -18 -36 -23 -15 -21 -13 -11 0
-11 -13 -16 -17 -18 -21 -24 -25 -26 -37 -38 -39 -50 -51 -53 0
-18 -17 -16 -13 -11 -53 -51 -39 -26 -50 -38 -25 -37 -24 -21 0
-11 -26 -25 -24 -21 -18 -17 -16 -13 -53 -51 -39 -50 -38 -37 0
-21 -24 -25 -26 -11 -37 -38 -39 -13 -50 -51 -16 -53 -17 -18 0
-21 -13 -39 -38 -37 -11 -26 -25 -24 -18 -17 -16 -53 -51 -50 0
-37 -38 -39 -13 -21 -50 -51 -16 -24 -53 -17 -25 -18 -26 -11 0
-37 -24 -16 -51 -50 -21 -13 -39 -38 -11 -26 -25 -18 -17 -53 0
-50 -51 -16 -24 -37 -53 -17 -25 -38 -18 -26 -39 -11 -13 -21 0
-50 -38 -25 -17 -53 -37 -24 -16 -51 -21 -13 -39 -11 -26 -18 0
-53 -17 -25 -38 -50 -18 -26 -39 -51 -11 -13 -16 -21 -24 -37 0
-18 -26 -39 -51 -53 -11 -13 -16 -17 -21 -24 -25 -37 -38 -50 0
-53 -51 -39 -26 -18 -50 -38 -25 -17 -37 -24 -16 -21 -13 -11 0
-11 -13 -16 -17 -19 -21 -24 -25 -27 -37 -38 -40 -50 -52 -54 0
-19 -17 -16 -13 -11 -54 -52 -40 -27 -50 -38 -25 -37 -24 -21 0
-11 -27 -25 -24 -21 -19 -17 -16 -13 -54 -52 -40 -50 -38 -37 0
-21 -24 -25 -27 -11 -37 -38 -40 -13 -50 -52 -16 -54 -17 -19 0
-21 -13 -40 -38 -37 -11 -27 -25 -24 -19 -17 -16 -54 -52 -50 0
-37 -38 -40 -13 -21 -50 -52 -16 -24 -54 -17 -25 -19 -27 -11 0
-37 -24 -16 -52 -50 -21 -13 -40 -38 -11 -27 -25 -19 -17 -54 0
-50 -52 -16 -24 -37 -54 -17 -25 -38 -19 -27 -40 -11 -13 -21 0
-50 -38 -25 -17 -54 -37 -24 -16 -52 -21 -13 -40 -11 -27 -19 0
-54 -17 -25 -38 -50 -19 -27 -40 -52 -11 -13 -16 -21 -24 -37 0
-19 -27 -40 -52 -54 -11 -13 -16 -17 -21 -24 -25 -37 -38 -50 0
-54 -52 -40 -27 -19 -50 -38 -25 -17 -37 -24 -16 -21 -13 -11 0
-11 -13 -16 -18 -19 -21 -24 -26 -27 -37 -39 -40 -51 -52 -55 0
-19 -18 -16 -13 -11 -55 -52 -40 -27 -51 -39 -26 -37 -24 -21 0
-11 -27 -26 -24 -21 -19 -18 -16 -13 -55 -52 -40 -51 -39 -37 0
-21 -24 -26 -27 -11 -37 -39 -40 -13 -51 -52 -16 -55 -18 -19 0
-21 -13 -40 -39 -37 -11 -27 -26 -24 -19 -18 -16 -55 -52 -51 0
-37 -39 -40 -13 -21 -51 -52 -16 -24 -55 -18 -26 -19 -27 -11 0
-37 -24 -16 -52 -51 -21 -13 -40 -39 -11 -27 -26 -19 -18 -55 0
-51 -52 -16 -24 -37 -55 -18 -26 -39 -19 -27 -40 -11 -13 -21 0
-51 -39 -26 -18 -55 -37 -24 -16 -52 -21 -13 -40 -11 -27 -19 0
-55 -18 -26 -39 -51 -19 -27 -40 -52 -11 -13 -16 -21 -24 -37 0
-19 -27 -40 -52 -55 -11 -13 -16 -18 -21 -24 -26 -37 -39 -51 0
-55 -52 -40 -27 -19 -51 -39 -26 -18 -37 -24 -16 -21 -13 -11 0
-11 -13 -17 -18 -19 -21 -25 -26 -27 -38 -39 -40 -53 -54 -55 0
-19 -18 -17 -13 -11 -55 -54 -40 -27 -53 -39 -26 -38 -25 -21 0
-11 -27 -26 -25 -21 -19 -18 -17 -13 -55 -54 -40 -53 -39 -38 0
-21 -25 -26 -27 -11 -38 -39 -40 -13 -53 -54 -17 -55 -18 -19 0
-21 -13 -40 -39 -38 -11 -27 -26 -25 -19 -18 -17 -55 -54 -53 0
-38 -39 -40 -13 -21 -53 -54 -17 -25 -55 -18 -26 -19 -27 -11 0
-38 -25 -17 -54 -53 -21 -13 -40 -39 -11 -27 -26 -19 -18 -55 0
-53 -54 -17 -25 -38 -55 -18 -26 -39 -19 -27 -40 -11 -13 -21 0
-53 -39 -26 -18 -55 -38 -25 -17 -54 -21 -13 -40 -11 -27 -19 0
-55 -18 -26 -39 -53 -19 -27 -40 -54 -11 -13 -17 -21 -25 -38 0
-19 -27 -40 -54 -55 -11 -13 -17 -18 -21 -25 -26 -38 -39 -53 0
-55 -54 -40 -27 -19 -53 -39 -26 -18 -38 -25 -17 -21 -13 -11 0
-11 -14 -15 -16 -17 -22 -23 -24 -25 -41 -42 -43 -46 -47 -50 0
-17 -16 -15 -14 -11 -50 -47 -43 -25 -46 -42 -24 -41 -23 -22 0
-11 -25 -24 -23 -22 -17 -16 -15 -14 -50 -47 -43 -46 -42 -41 0
-22 -23 -24 -25 -11 -41 -42 -43 -14 -46 -47 -15 -50 -16 -17 0
-22 -14 -43 -42 -41 -11 -25 -24 -23 -17 -16 -15 -50 -47 -46 0
-41 -42 -43 -14 -22 -46 -47 -15 -23 -50 -16 -24 -17 -25 -11 0
-41 -23 -15 -47 -46 -22 -14 -43 -42 -11 -25 -24 -17 -16 -50 0
-46 -47 -15 -23 -41 -50 -16 -24 -42 -17 -25 -43 -11 -14 -22 0
-46 -42 -24 -16 -50 -41 -23 -15 -47 -22 -14 -43 -11 -25 -17 0
-50 -16 -24 -42 -46 -17 -25 -43 -47 -11 -14 -15 -22 -23 -41 0
-17 -25 -43 -47 -50 -11 -14 -15 -16 -22 -23 -24 -41 -42 -46 0
-50 -47 -43 -25 -17 -46 -42 -24 -16 -41 -23 -15 -22 -14 -11 0
-11 -14 -15 -16 -18 -22 -23 -24 -26 -41 -42 -44 -46 -48 -51 0
-18 -16 -15 -14 -11 -51 -48 -44 -26 -46 -42 -24 -41 -23 -22 0
-11 -26 -24 -23 -22 -18 -16 -15 -14 -51 -48 -44 -46 -42 -41 0
-22 -23 -24 -26 -11 -41 -42 -44 -14 -46 -48 -15 -51 -16 -18 0
-22 -14 -44 -42 -41 -11 -26 -24 -23 -18 -16 -15 -51 -48 -46 0
-41 -42 -44 -14 -22 -46 -48 -15 -23 -51 -16 -24 -18 -26 -11 0
-41 -23 -15 -48 -46 -22 -14 -44 -42 -11 -26 -24 -18 -16 -51 0
-46 -48 -15 -23 -41 -51 -16 -24 -42 -18 -26 -44 -11 -14 -22 0
-46 -42 -24 -16 -51 -41 -23 -15 -48 -22 -14 -44 -11 -26 -18 0
-51 -16 -24 -42 -46 -18 -26 -44 -48 -11 -14 -15 -22 -23 -41 0
-18 -26 -44 -48 -51 -11 -14 -15 -16 -22 -23 -24 -41 -42 -46 0
-51 -48 -44 -26 -18 -46 -42 -24 -16 -41 -23 -15 -22 -14 -11 0
-11 -14 -15 -16 -19 -22 -23 -24 -27 -41 -42 -45 -46 -49 -52 0
-19 -16 -15 -14 -11 -52 -49 -45 -27 -46 -42 -24 -41 -23 -22 0
-11 -27 -24 -23 -22 -19 -16 -15 -14 -52 -49 -45 -46 -42 -41 0
-22 -23 -24 -27 -11 -41 -42 -45 -14 -46 -49 -15 -52 -16 -19 0
-22 -14 -45 -42 -41 -11 -27 -24 -23 -19 -16 -15 -52 -49 -46 0
-41 -42 -45 -14 -22 -46 -49 -15 -23 -52 -16 -24 -19 -27 -11 0
-41 -23 -15 -49 -46 -22 -14 -45 -42 -11 -27 -24 -19 -16 -52 0
-46 -49 -15 -23 -41 -52 -16 -24 -42 -19 -27 -45 -11 -14 -22 0
-46 -42 -24 -16 -52 -41 -23 -15 -49 -22 -14 -45 -11 -27 -19 0
-52 -16 -24 -42 -46 -19 -27 -45 -49 -11 -14 -15 -22 -23 -41 0
-19 -27 -45 -49 -52 -11 -14 -15 -16 -22 -23 -24 -41 -42 -46 0
-52 -49 -45 -27 -19 -46 -42 -24 -16 -41 -23 -15 -22 -14 -11 0
-11 -14 -15 -17 -18 -22 -23 -25 -26 -41 -43 -44 -47 -48 -53 0
-18 -17 -15 -14 -11 -53 -48 -44 -26 -47 -43 -25 -41 -23 -22 0
-11 -26 -25 -23 -22 -18 -17 -15 -14 -53 -48 -44 -47 -43 -41 0
-22 -23 -25 -26 -11 -41 -43 -44 -14 -47 -48 -15 -53 -17 -18 0
-22 -14 -44 -43 -41 -11 -26 -25 -23 -18 -17 -15 -53 -48 -47 0
-41 -43 -44 -14 -22 -47 -48 -15 -23 -53 -17 -25 -18 -26 -11 0
-41 -23 -15 -48 -47 -22 -14 -44 -43 -11 -26 -25 -18 -17 -53 0
-47 -48 -15 -23 -41 -53 -17 -25 -43 -18 -26 -44 -11 -14 -22 0
-47 -43 -25 -17 -53 -41 -23 -15 -48 -22 -14 -44 -11 -26 -18 0
-53 -17 -25 -43 -47 -18 -26 -44 -48 -11 -14 -15 -22 -23 -41 0
-18 -26 -44 -48 -53 -11 -14 -15 -17 -22 -23 -25 -41 -43 -47 0
-53 -48 -44 -26 -18 -47 -43 -25 -17 -41 -23 -15 -22 -14 -11 0
-11 -14 -15 -17 -19 -22 -23 -25 -27 -41 -43 -45 -47 -49 -54 0
-19 -17 -15 -14 -11 -54 -49 -45 -27 -47 -43 -25 -41 -23 -22 0
-11 -27 -25 -23 -22 -19 -17 -15 -14 -54 -49 -45 -47 -43 -41 0
-22 -23 -25 -27 -11 -41 -43 -45 -14 -47 -49 -15 -54 -17 -19 0
-22 -14 -45 -43 -41 -11 -27 -25 -23 -19 -17 -15 -54 -49 -47 0
-41 -43 -45 -14 -22 -47 -49 -15 -23 -54 -17 -25 -19 -27 -11 0
-41 -23 -15 -49 -47 -22 -14 -45 -43 -11 -27 -25 -19 -17 -54 0
-47 -49 -15 -23 -41 -54 -17 -25 -43 -19 -27 -45 -11 -14 -22 0
-47 -43 -25 -17 -54 -41 -23 -15 -49 -22 -14 -45 -11 -27 -19 0
-54 -17 -25 -43 -47 -19 -27 -45 -49 -11 -14 -15 -22 -23 -41 0
-19 -27 -45 -49 -54 -11 -14 -15 -17 -22 -23 -25 -41 -43 -47 0
-54 -49 -45 -27 -19 -47 -43 -25 -17 -41 -23 -15 -22 -14 -11 0
-11 -14 -15 -18 -19 -22 -23 -26 -27 -41 -44 -45 -48 -49 -55 0
-19 -18 -15 -14 -11 -55 -49 -45 -27 -48 -44 -26 -41 -23 -22 0
-11 -27 -26 -23 -22 -19 -18 -15 -14 -55 -49 -45 -48 -44 -41 0
-22 -23 -26 -27 -11 -41 -44 -45 -14 -48 -49 -15 -55 -18 -19 0
-22 -14 -45 -44 -41 -11 -27 -26 -23 -19 -18 -15 -55 -49 -48 0
-41 -44 -45 -14 -22 -48 -49 -15 -23 -55 -18 -26 -19 -27 -11 0
-41 -23 -15 -49 -48 -22 -14 -45 -44 -11 -27 -26 -19 -18 -55 0
-48 -49 -15 -23 -41 -55 -18 -26 -44 -19 -27 -45 -11 -14 -22 0
-48 -44 -26 -18 -55 -41 -23 -15 -49 -22 -14 -45 -11 -27 -19 0
-55 -18 -26 -44 -48 -19 -27 -45 -49 -11 -14 -15 -22 -23 -41 0
-19 -27 -45 -49 -55 -11 -14 -15 -18 -22 -23 -26 -41 -44 -48 0
-55 -49 -45 -27 -19 -48 -44 -26 -18 -41 -23 -15 -22 -14 -11 0
-11 -14 -16 -17 -18 -22 -24 -25 -26 -42 -43 -44 -50 -51 -53 0
-18 -17 -16 -14 -11 -53 -51 -44 -26 -50 -43 -25 -42 -24 -22 0
-11 -26 -25 -24 -22 -18 -17 -16 -14 -53 -51 -44 -50 -43 -42 0
-22 -24 -25 -26 -11 -42 -43 -44 -14 -50 -51 -16 -53 -17 -18 0
-22 -14 -44 -43 -42 -11 -26 -25 -24 -18 -17 -16 -53 -51 -50 0
-42 -43 -44 -14 -22 -50 -51 -16 -24 -53 -17 -25 -18 -26 -11 0
-42 -24 -16 -51 -50 -22 -14 -44 -43 -11 -26 -25 -18 -17 -53 0
-50 -51 -16 -24 -42 -53 -17 -25 -43 -18 -26 -44 -11 -14 -22 0
-50 -43 -25 -17 -53 -42 -24 -16 -51 -22 -14 -44 -11 -26 -18 0
-53 -17 -25 -43 -50 -18 -26 -44 -51 -11 -14 -16 -22 -24 -42 0
-18 -26 -44 -51 -53 -11 -14 -16 -17 -22 -24 -25 -42 -43 -50 0
-53 -51 -44 -26 -18 -50 -43 -25 -17 -42 -24 -16 -22 -14 -11 0
-11 -14 -16 -17 -19 -22 -24 -25 -27 -42 -43 -45 -50 -52 -54 0
-19 -17 -16 -14 -11 -54 -52 -45 -27 -50 -43 -25 -42 -24 -22 0
-11 -27 -25 -24 -22 -19 -17 -16 -14 -54 -52 -45 -50 -43 -42 0
-22 -24 -25 -27 -11 -42 -43 -45 -14 -50 -52 -16 -54 -17 -19 0
-22 -14 -45 -43 -42 -11 -27 -25 -24 -19 -17 -16 -54 -52 -50 0
-42 -43 -45 -14 -22 -50 -52 -16 -24 -54 -17 -25 -19 -27 -11 0
-42 -24 -16 -52 -50 -22 -14 -45 -43 -11 -27 -25 -19 -17 -54 0
-50 -52 -16 -24 -42 -54 -17 -25 -43 -19 -27 -45 -11 -14 -22 0
-50 -43 -25 -17 -54 -42 -24 -16 -52 -22 -14 -45 -11 -27 -19 0
-54 -17 -25 -43 -50 -19 -27 -45 -52 -11 -14 -16 -22 -24 -42 0
-19 -27 -45 -52 -54 -11 -14 -16 -17 -22 -24 -25 -42 -43 -50 0
-54 -52 -45 -27 -19 -50 -43 -25 -17 -42 -24 -16 -22 -14 -11 0
-11 -14 -16 -18 -19 -22 -24 -26 -27 -42 -44 -45 -51 -52 -55 0
-19 -18 -16 -14 -11 -55 -52 -45 -27 -51 -44 -26 -42 -24 -22 0
-11 -27 -26 -24 -22 -19 -18 -16 -14 -55 -52 -45 -51 -44 -42 0
-22 -24 -26 -27 -11 -42 -44 -45 -14 -51 -52 -16 -55 -18 -19 0
-22 -14 -45 -44 -42 -11 -27 -26 -24 -19 -18 -16 -55 -52 -51 0
-42 -44 -45 -14 -22 -51 -52 -16 -24 -55 -18 -26 -19 -27 -11 0
-42 -24 -16 -52 -51 -22 -14 -45 -44 -11 -27 -26 -19 -18 -55 0
-51 -52 -16 -24 -42 -55 -18 -26 -44 -19 -27 -45 -11 -14 -22 0
-51 -44 -26 -18 -55 -42 -24 -16 -52 -22 -14 -45 -11 -27 -19 0
-55 -18 -26 -44 -51 -19 -27 -45 -52 -11 -14 -16 -22 -24 -42 0
-19 -27 -45 -52 -55 -11 -14 -16 -18 -22 -24 -26 -42 -44 -51 0
-55 -52 -45 -27 -19 -51 -44 -26 -18 -42 -24 -16 -22 -14 -11 0
-11 -14 -17 -18 -19 -22 -25 -26 -27 -43 -44 -45 -53 -54 -55 0
-19 -18 -17 -14 -11 -55 -54 -45 -27 -53 -44 -26 -43 -25 -22 0
-11 -27 -26 -25 -22 -19 -18 -17 -14 -55 -54 -45 -53 -44 -43 0
-22 -25 -26 -27 -11 -43 -44 -45 -14 -53 -54 -17 -55 -18 -19 0
-22 -14 -45 -44 -43 -11 -27 -26 -25 -19 -18 -17 -55 -54 -53 0
-43 -44 -45 -14 -22 -53 -54 -17 -25 -55 -18 -26 -19 -27 -11 0
-43 -25 -17 -54 -53 -22 -14 -45 -44 -11 -27 -26 -19 -18 -55 0
-53 -54 -17 -25 -43 -55 -18 -26 -44 -19 -27 -45 -11 -14 -22 0
-53 -44 -26 -18 -55 -43 -25 -17 -54 -22 -14 -45 -11 -27 -19 0
-55 -18 -26 -44 -53 -19 -27 -45 -54 -11 -14 -17 -22 -25 -43 0
-19 -27 -45 -54 -55 -11 -14 -17 -18 -22 -25 -26 -43 -44 -53 0
-55 -54 -45 -27 -19 -53 -44 -26 -18 -43 -25 -17 -22 -14 -11 0
-11 -15 -16 -17 -18 -23 -24 -25 -26 -46 -47 -48 -50 -51 -53 0
-18 -17 -16 -15 -11 -53 -51 -48 -26 -50 -47 -25 -46 -24 -23 0
-11 -26 -25 -24 -23 -18 -17 -16 -15 -53 -51 -48 -50 -47 -46 0
-23 -24 -25 -26 -11 -46 -47 -48 -15 -50 -51 -16 -53 -17 -18 0
-23 -15 -48 -47 -46 -11 -26 -25 -24 -18 -17 -16 -53 -51 -50 0
-46 -47 -48 -15 -23 -50 -51 -16 -24 -53 -17 -25 -18 -26 -11 0
-46 -24 -16 -51 -50 -23 -15 -48 -47 -11 -26 -25 -18 -17 -53 0
-50 -51 -16 -24 -46 -53 -17 -25 -47 -18 -26 -48 -11 -15 -23 0
-50 -47 -25 -17 -53 -46 -24 -16 -51 -23 -15 -48 -11 -26 -18 0
-53 -17 -25 -47 -50 -18 -26 -48 -51 -11 -15 -16 -23 -24 -46 0
-18 -26 -48 -51 -53 -11 -15 -16 -17 -23 -24 -25 -46 -47 -50 0
-53 -51 -48 -26 -18 -50 -47 -25 -17 -46 -24 -16 -23 -15 -11 0
-11 -15 -16 -17 -19 -23 -24 -25 -27 -46 -47 -49 -50 -52 -54 0
-19 -17 -16 -15 -11 -54 -52 -49 -27 -50 -47 -25 -46 -24 -23 0
-11 -27 -25 -24 -23 -19 -17 -16 -15 -54 -52 -49 -50 -47 -46 0
-23 -24 -25 -27 -11 -46 -47 -49 -15 -50 -52 -16 -54 -17 -19 0
-23 -15 -49 -47 -46 -11 -27 -25 -24 -19 -17 -16 -54 -52 -50 0
-46 -47 -49 -15 -23 -50 -52 -16 -24 -54 -17 -25 -19 -27 -11 0
-46 -24 -16 -52 -50 -23 -15 -49 -47 -11 -27 -25 -19 -17 -54 0
-50 -52 -16 -24 -46 -54 -17 -25 -47 -19 -27 -49 -11 -15 -23 0
-50 -47 -25 -17 -54 -46 -24 -16 -52 -23 -15 -49 -11 -27 -19 0
-54 -17 -25 -47 -50 -19 -27 -49 -52 -11 -15 -16 -23 -24 -46 0
-19 -27 -49 -52 -54 -11 -15 -16 -17 -23 -24 -25 -46 -47 -50 0
-54 -52 -49 -27 -19 -50 -47 -25 -17 -46 -24 -16 -23 -15 -11 0
-11 -15 -16 -18 -19 -23 -24 -26 -27 -46 -48 -49 -51 -52 -55 0
-19 -18 -16 -15 -11 -55 -52 -49 -27 -51 -48 -26 -46 -24 -23 0
-11 -27 -26 -24 -23 -19 -18 -16 -15 -55 -52 -49 -51 -48 -46 0
-23 -24 -26 -27 -11 -46 -48 -49 -15 -51 -52 -16 -55 -18 -19 0
-23 -15 -49 -48 -46 -11 -27 -26 -24 -19 -18 -16 -55 -52 -51 0
-46 -48 -49 -15 -23 -51 -52 -16 -24 -55 -18 -26 -19 -27 -11 0
-46 -24 -16 -52 -51 -23 -15 -49 -48 -11 -27 -26 -19 -18 -55 0
-51 -52 -16 -24 -46 -55 -18 -26 -48 -19 -27 -49 -11 -15 -23 0
-51 -48 -26 -18 -55 -46 -24 -16 -52 -23 -15 -49 -11 -27 -19 0
-55 -18 -26 -48 -51 -19 -27 -49 -52 -11 -15 -16 -23 -24 -46 0
-19 -27 -49 -52 -55 -11 -15 -16 -18 -23 -24 -26 -46 -48 -51 0
-55 -52 -49 -27 -19 -51 -48 -26 -18 -46 -24 -16 -23 -15 -11 0
-11 -15 -17 -18 -19 -23 -25 -26 -27 -47 -48 -49 -53 -54 -55 0
-19 -18 -17 -15 -11 -55 -54 -49 -27 -53 -48 -26 -47 -25 -23 0
-11 -27 -26 -25 -23 -19 -18 -17 -15 -55 -54 -49 -53 -48 -47 0
-23 -25 -26 -27 -11 -47 -48 -49 -15 -53 -54 -17 -55 -18 -19 0
-23 -15 -49 -48 -47 -11 -27 -26 -25 -19 -18 -17 -55 -54 -53 0
-47 -48 -49 -15 -23 -53 -54 -17 -25 -55 -18 -26 -19 -27 -11 0
-47 -25 -17 -54 -53 -23 -15 -49 -48 -11 -27 -26 -19 -18 -55 0
-53 -54 -17 -25 -47 -55 -18 -26 -48 -19 -27 -49 -11 -15 -23 0
-53 -48 -26 -18 -55 -47 -25 -17 -54 -23 -15 -49 -11 -27 -19 0
-55 -18 -26 -48 -53 -19 -27 -49 -54 -11 -15 -17 -23 -25 -47 0
-19 -27 -49 -54 -55 -11 -15 -17 -18 -23 -25 -26 -47 -48 -53 0
-55 -54 -49 -27 -19 -53 -48 -26 -18 -47 -25 -17 -23 -15 -11 0
-11 -16 -17 -18 -19 -24 -25 -26 -27 -50 -51 -52 -53 -54 -55 0
-19 -18 -17 -16 -11 -55 -54 -52 -27 -53 -51 -26 -50 -25 -24 0
-11 -27 -26 -25 -24 -19 -18 -17 -16 -55 -54 -52 -53 -51 -50 0
-24 -25 -26 -27 -11 -50 -51 -52 -16 -53 -54 -17 -55 -18 -19 0
-24 -16 -52 -51 -50 -11 -27 -26 -25 -19 -18 -17 -55 -54 -53 0
-50 -51 -52 -16 -24 -53 -54 -17 -25 -55 -18 -26 -19 -27 -11 0
-50 -25 -17 -54 -53 -24 -16 -52 -51 -11 -27 -26 -19 -18 -55 0
-53 -54 -17 -25 -50 -55 -18 -26 -51 -19 -27 -52 -11 -16 -24 0
-53 -51 -26 -18 -55 -50 -25 -17 -54 -24 -16 -52 -11 -27 -19 0
-55 -18 -26 -51 -53 -19 -27 -52 -54 -11 -16 -17 -24 -25 -50 0
-19 -27 -52 -54 -55 -11 -16 -17 -18 -24 -25 -26 -50 -51 -53 0
-55 -54 -52 -27 -19 -53 -51 -26 -18 -50 -25 -17 -24 -16 -11 0
-12 -13 -14 -15 -16 -28 -29 -30 -31 -35 -36 -37 -41 -42 -46 0
-16 -15 -14 -13 -12 -46 -42 -37 -31 -41 -36 -30 -35 -29 -28 0
-12 -31 -30 -29 -28 -16 -15 -14 -13 -46 -42 -37 -41 -36 -35 0
-28 -29 -30 -31 -12 -35 -36 -37 -13 -41 -42 -14 -46 -15 -16 0
-28 -13 -37 -36 -35 -12 -31 -30 -29 -16 -15 -14 -46 -42 -41 0
-35 -36 -37 -13 -28 -41 -42 -14 -29 -46 -15 -30 -16 -31 -12 0
-35 -29 -14 -42 -41 -28 -13 -37 -36 -12 -31 -30 -16 -15 -46 0
-41 -42 -14 -29 -35 -46 -15 -30 -36 -16 -31 -37 -12 -13 -28 0
-41 -36 -30 -15 -46 -35 -29 -14 -42 -28 -13 -37 -12 -31 -16 0
-46 -15 -30 -36 -41 -16 -31 -37 -42 -12 -13 -14 -28 -29 -35 0
-16 -31 -37 -42 -46 -12 -13 -14 -15 -28 -29 -30 -35 -36 -41 0
-46 -42 -37 -31 -16 -41 -36 -30 -15 -35 -29 -14 -28 -13 -12 0
-12 -13 -14 -15 -17 -28 -29 -30 -32 -35 -36 -38 -41 -43 -47 0
-17 -15 -14 -13 -12 -47 -43 -38 -32 -41 -36 -30 -35 -29 -28 0
-12 -32 -30 -29 -28 -17 -15 -14 -13 -47 -43 -38 -41 -36 -35 0
-28 -29 -30 -32 -12 -35 -36 -38 -13 -41 -43 -14 -47 -15 -17 0
-28 -13 -38 -36 -35 -12 -32 -30 -29 -17 -15 -14 -47 -43 -41 0
-35 -36 -38 -13 -28 -41 -43 -14 -29 -47 -15 -30 -17 -32 -12 0
-35 -29 -14 -43 -41 -28 -13 -38 -36 -12 -32 -30 -17 -15 -47 0
-41 -43 -14 -29 -35 -47 -15 -30 -36 -17 -32 -38 -12 -13 -28 0
-41 -36 -30 -15 -47 -35 -29 -14 -43 -28 -13 -38 -12 -32 -17 0
-47 -15 -30 -36 -41 -17 -32 -38 -43 -12 -13 -14 -28 -29 -35 0
-17 -32 -38 -43 -47 -12 -13 -14 -15 -28 -29 -30 -35 -36 -41 0
-47 -43 -38 -32 -17 -41 -36 -30 -15 -35 -29 -14 -28 -13 -12 0
-12 -13 -14 -15 -18 -28 -29 -30 -33 -35 -36 -39 -41 -44 -48 0
-18 -15 -14 -13 -12 -48 -44 -39 -33 -41 -36 -30 -35 -29 -28 0
-12 -33 -30 -29 -28 -18 -15 -14 -13 -48 -44 -39 -41 -36 -35 0
-28 -29 -30 -33 -12 -35 -36 -39 -13 -41 -44 -14 -48 -15 -18 0
-28 -13 -39 -36 -35 -12 -33 -30 -29 -18 -15 -14 -48 -44 -41 0
-35 -36 -39 -13 -28 -41 -44 -14 -29 -48 -15 -30 -18 -33 -12 0
-35 -29 -14 -44 -41 -28 -13 -39 -36 -12 -33 -30 -18 -15 -48 0
-41 -44 -14 -29 -35 -48 -15 -30 -36 -18 -33 -39 -12 -13 -28 0
-41 -36 -30 -15 -48 -35 -29 -14 -44 -28 -13 -39 -12 -33 -18 0
-48 -15 -30 -36 -41 -18 -33 -39 -44 -12 -13 -14 -28 -29 -35 0
-18 -33 -39 -44 -48 -12 -13 -14 -15 -28 -29 -30 -35 -36 -41 0
-48 -44 -39 -33 -18 -41 -36 -30 -15 -35 -29 -14 -28 -13 -12 0
-12 -13 -14 -15 -19 -28 -29 -30 -34 -35 -36 -40 -41 -45 -49 0
-19 -15 -14 -13 -12 -49 -45 -40 -34 -41 -36 -30 -35 -29 -28 0
-12 -34 -30 -29 -28 -19 -15 -14 -13 -49 -45 -40 -41 -36 -35 0
-28 -29 -30 -34 -12 -35 -36 -40 -13 -41 -45 -14 -49 -15 -19 0
-28 -13 -40 -36 -35 -12 -34 -30 -29 -19 -15 -14 -49 -45 -41 0
-35 -36 -40 -13 -28 -41 -45 -14 -29 -49 -15 -30 -19 -34 -12 0
-35 -29 -14 -45 -41 -28 -13 -40 -36 -12 -34 -30 -19 -15 -49 0
-41 -45 -14 -29 -35 -49 -15 -30 -36 -19 -34 -40 -12 -13 -28 0
-41 -36 -30 -15 -49 -35 -29 -14 -45 -28 -13 -40 -12 -34 -19 0
-49 -15 -30 -36 -41 -19 -34 -40 -45 -12 -13 -14 -28 -29 -35 0
-19 -34 -40 -45 -49 -12 -13 -14 -15 -28 -29 -30 -35 -36 -41 0
-49 -45 -40 -34 -19 -41 -36 -30 -15 -35 -29 -14 -28 -13 -12 0
-12 -13 -14 -16 -17 -28 -29 -31 -32 -35 -37 -38 -42 -43 -50 0
-17 -16 -14 -13 -12 -50 -43 -38 -32 -42 -37 -31 -35 -29 -28 0
-12 -32 -31 -29 -28 -17 -16 -14 -13 -50 -43 -38 -42 -37 -35 0
-28 -29 -31 -32 -12 -35 -37 -38 -13 -42 -43 -14 -50 -16 -17 0
-28 -13 -38 -37 -35 -12 -32 -31 -29 -17 -16 -14 -50 -43 -42 0
-35 -37 -38 -13 -28 -42 -43 -14 -29 -50 -16 -31 -17 -32 -12 0
-35 -29 -14 -43 -42 -28 -13 -38 -37 -12 -32 -31 -17 -16 -50 0
-42 -43 -14 -29 -35 -50 -16 -31 -37 -17 -32 -38 -12 -13 -28 0
-42 -37 -31 -16 -50 -35 -29 -14 -43 -28 -13 -38 -12 -32 -17 0
-50 -16 -31 -37 -42 -17 -32 -38 -43 -12 -13 -14 -28 -29 -35 0
-17 -32 -38 -43 -50 -12 -13 -14 -16 -28 -29 -31 -35 -37 -42 0
-50 -43 -38 -32 -17 -42 -37 -31 -16 -35 -29 -14 -28 -13 -12 0
-12 -13 -14 -16 -18 -28 -29 -31 -33 -35 -37 -39 -42 -44 -51 0
-18 -16 -14 -13 -12 -51 -44 -39 -33 -42 -37 -31 -35 -29 -28 0
-12 -33 -31 -29 -28 -18 -16 -14 -13 -51 -44 -39 -42 -37 -35 0
-28 -29 -31 -33 -12 -35 -37 -39 -13 -42 -44 -14 -51 -16 -18 0
-28 -13 -39 -37 -35 -12 -33 -31 -29 -18 -16 -14 -51 -44 -42 0
-35 -37 -39 -13 -28 -42 -44 -14 -29 -51 -16 -31 -18 -33 -12 0
-35 -29 -14 -44 -42 -28 -13 -39 -37 -12 -33 -31 -18 -16 -51 0
-42 -44 -14 -29 -35 -51 -16 -31 -37 -18 -33 -39 -12 -13 -28 0
-42 -37 -31 -16 -51 -35 -29 -14 -44 -28 -13 -39 -12 -33 -18 0
-51 -16 -31 -37 -42 -18 -33 -39 -44 -12 -13 -14 -28 -29 -35 0
-18 -33 -39 -44 -51 -12 -13 -14 -16 -28 -29 -31 -35 -37 -42 0
-51 -44 -39 -33 -18 -42 -37 -31 -16 -35 -29 -14 -28 -13 -12 0
-12 -13 -14 -16 -19 -28 -29 -31 -34 -35 -37 -40 -42 -45 -52 0
-19 -16 -14 -13 -12 -52 -45 -40 -34 -42 -37 -31 -35 -29 -28 0
-12 -34 -31 -29 -28 -19 -16 -14 -13 -52 -45 -40 -42 -37 -35 0
-28 -29 -31 -34 -12 -35 -37 -40 -13 -42 -45 -14 -52 -16 -19 0
-28 -13 -40 -37 -35 -12 -34 -31 -29 -19 -16 -14 -52 -45 -42 0
-35 -37 -40 -13 -28 -42 -45 -14 -29 -52 -16 -31 -19 -34 -12 0
-35 -29 -14 -45 -42 -28 -13 -40 -37 -12 -34 -31 -19 -16 -52 0
-42 -45 -14 -29 -35 -52 -16 -31 -37 -19 -34 -40 -12 -13 -28 0
-42 -37 -31 -16 -52 -35 -29 -14 -45 -28 -13 -40 -12 -34 -19 0
-52 -16 -31 -37 -42 -19 -34 -40 -45 -12 -13 -14 -28 -29 -35 0
-19 -34 -40 -45 -52 -12 -13 -14 -16 -28 -29 -31 -35 -37 -42 0
-52 -45 -40 -34 -19 -42 -37 -31 -16 -35 -29 -14 -28 -13 -12 0
-12 -13 -14 -17 -18 -28 -29 -32 -33 -35 -38 -39 -43 -44 -53 0
-18 -17 -14 -13 -12 -53 -44 -39 -33 -43 -38 -32 -35 -29 -28 0
-12 -33 -32 -29 -28 -18 -17 -14 -13 -53 -44 -39 -43 -38 -35 0
-28 -29 -32 -33 -12 -35 -38 -39 -13 -43 -44 -14 -53 -17 -18 0
-28 -13 -39 -38 -35 -12 -33 -32 -29 -18 -17 -14 -53 -44 -43 0
-35 -38 -39 -13 -28 -43 -44 -14 -29 -53 -17 -32 -18 -33 -12 0
-35 -29 -14 -44 -43 -28 -13 -39 -38 -12 -33 -32 -18 -17 -53 0
-43 -44 -14 -29 -35 -53 -17 -32 -38 -18 -33 -39 -12 -13 -28 0
-43 -38 -32 -17 -53 -35 -29 -14 -44 -28 -13 -39 -12 -33 -18 0
-53 -17 -32 -38 -43 -18 -33 -39 -44 -12 -13 -14 -28 -29 -35 0
-18 -33 -39 -44 -53 -12 -13 -14 -17 -28 -29 -32 -35 -38 -43 0
-53 -44 -39 -33 -18 -43 -38 -32 -17 -35 -29 -14 -28 -13 -12 0
-12 -13 -14 -17 -19 -28 -29 -32 -34 -35 -38 -40 -43 -45 -54 0
-19 -17 -14 -13 -12 -54 -45 -40 -34 -43 -38 -32 -35 -29 -28 0
-12 -34 -32 -29 -28 -19 -17 -14 -13 -54 -45 -40 -43 -38 -35 0
-28 -29 -32 -34 -12 -35 -38 -40 -13 -43 -45 -14 -54 -17 -19 0
-28 -13 -40 -38 -35 -12 -34 -32 -29 -19 -17 -14 -54 -45 -43 0
-35 -38 -40 -13 -28 -43 -45 -14 -29 -54 -17 -32 -19 -34 -12 0
-35 -29 -14 -45 -43 -28 -13 -40 -38 -12 -34 -32 -19 -17 -54 0
-43 -45 -14 -29 -35 -54 -17 -32 -38 -19 -34 -40 -12 -13 -28 0
-43 -38 -32 -17 -54 -35 -29 -14 -45 -28 -13 -40 -12 -34 -19 0
-54 -17 -32 -38 -43 -19 -34 -40 -45 -12 -13 -14 -28 -29 -35 0
-19 -34 -40 -45 -54 -12 -13 -14 -17 -28 -29 -32 -35 -38 -43 0
-54 -45 -40 -34 -19 -43 -38 -32 -17 -35 -29 -14 -28 -13 -12 0
-12 -13 -14 -18 -19 -28 -29 -33 -34 -35 -39 -40 -44 -45 -55 0
-19 -18 -14 -13 -12 -55 -45 -40 -34 -44 -39 -33 -35 -29 -28 0
-12 -34 -33 -29 -28 -19 -18 -14 -13 -55 -45 -40 -44 -39 -35 0
-28 -29 -33 -34 -12 -35 -39 -40 -13 -44 -45 -14 -55 -18 -19 0
-28 -13 -40 -39 -35 -12 -34 -33 -29 -19 -18 -14 -55 -45 -44 0
-35 -39 -40 -13 -28 -44 -45 -14 -29 -55 -18 -33 -19 -34 -12 0
-35 -29 -14 -45 -44 -28 -13 -40 -39 -12 -34 -33 -19 -18 -55 0
-44 -45 -14 -29 -35 -55 -18 -33 -39 -19 -34 -40 -12 -13 -28 0
-44 -39 -33 -18 -55 -35 -29 -14 -45 -28 -13 -40 -12 -34 -19 0
-55 -18 -33 -39 -44 -19 -34 -40 -45 -12 -13 -14 -28 -29 -35 0
-19 -34 -40 -45 -55 -12 -13 -14 -18 -28 -29 -33 -35 -39 -44 0
-55 -45 -40 -34 -19 -44 -39 -33 -18 -35 -29 -14 -28 -13 -12 0
-12 -13 -15 -16 -17 -28 -30 -31 -32 -36 -37 -38 -46 -47 -50 0
-17 -16 -15 -13 -12 -50 -47 -38 -32 -46 -37 -31 -36 -30 -28 0
-12 -32 -31 -30 -28 -17 -16 -15 -13 -50 -47 -38 -46 -37 -36 0
-28 -30 -31 -32 -12 -36 -37 -38 -13 -46 -47 -15 -50 -16 -17 0
-28 -13 -38 -37 -36 -12 -32 -31 -30 -17 -16 -15 -50 -47 -46 0
-36 -37 -38 -13 -28 -46 -47 -15 -30 -50 -16 -31 -17 -32 -12 0
-36 -30 -15 -47 -46 -28 -13 -38 -37 -12 -32 -31 -17 -16 -50 0
-46 -47 -15 -30 -36 -50 -16 -31 -37 -17 -32 -38 -12 -13 -28 0
-46 -37 -31 -16 -50 -36 -30 -15 -47 -28 -13 -38 -12 -32 -17 0
-50 -16 -31 -37 -46 -17 -32 -38 -47 -12 -13 -15 -28 -30 -36 0
-17 -32 -38 -47 -50 -12 -13 -15 -16 -28 -30 -31 -36 -37 -46 0
-50 -47 -38 -32 -17 -46 -37 -31 -16 -36 -30 -15 -28 -13 -12 0
-12 -13 -15 -16 -18 -28 -30 -31 -33 -36 -37 -39 -46 -48 -51 0
-18 -16 -15 -13 -12 -51 -48 -39 -33 -46 -37 -31 -36 -30 -28 0
-12 -33 -31 -30 -28 -18 -16 -15 -13 -51 -48 -39 -46 -37 -36 0
-28 -30 -31 -33 -12 -36 -37 -39 -13 -46 -48 -15 -51 -16 -18 0
-28 -13 -39 -37 -36 -12 -33 -31 -30 -18 -16 -15 -51 -48 -46 0
-36 -37 -39 -13 -28 -46 -48 -15 -30 -51 -16 -31 -18 -33 -12 0
-36 -30 -15 -48 -46 -28 -13 -39 -37 -12 -33 -31 -18 -16 -51 0
-46 -48 -15 -30 -36 -51 -16 -31 -37 -18 -33 -39 -12 -13 -28 0
-46 -37 -31 -16 -51 -36 -30 -15 -48 -28 -13 -39 -12 -33 -18 0
-51 -16 -31 -37 -46 -18 -33 -39 -48 -12 -13 -15 -28 -30 -36 0
-18 -33 -39 -48 -51 -12 -13 -15 -16 -28 -30 -31 -36 -37 -46 0
-51 -48 -39 -33 -18 -46 -37 -31 -16 -36 -30 -15 -28 -13 -12 0
-12 -13 -15 -16 -19 -28 -30 -31 -34 -36 -37 -40 -46 -49 -52 0
-19 -16 -15 -13 -12 -52 -49 -40 -34 -46 -37 -31 -36 -30 -28 0
-12 -34 -31 -30 -28 -19 -16 -15 -13 -52 -49 -40 -46 -37 -36 0
-28 -30 -31 -34 -12 -36 -37 -40 -13 -46 -49 -15 -52 -16 -19 0
-28 -13 -40 -37 -36 -12 -34 -31 -30 -19 -16 -15 -52 -49 -46 0
-36 -37 -40 -13 -28 -46 -49 -15 -30 -52 -16 -31 -19 -34 -12 0
-36 -30 -15 -49 -46 -28 -13 -40 -37 -12 -34 -31 -19 -16 -52 0
-46 -49 -15 -30 -36 -52 -16 -31 -37 -19 -34 -40 -12 -13 -28 0
-46 -37 -31 -16 -52 -36 -30 -15 -49 -28 -13 -40 -12 -34 -19 0
-52 -16 -31 -37 -46 -19 -34 -40 -49 -12 -13 -15 -28 -30 -36 0
-19 -34 -40 -49 -52 -12 -13 -15 -16 -28 -30 -31 -36 -37 -46 0
-52 -49 -40 -34 -19 -46 -37 -31 -16 -36 -30 -15 -28 -13 -12 0
-12 -13 -15 -17 -18 -28 -30 -32 -33 -36 -38 -39 -47 -48 -53 0
-18 -17 -15 -13 -12 -53 -48 -39 -33 -47 -38 -32 -36 -30 -28 0
-12 -33 -32 -30 -28 -18 -17 -15 -13 -53 -48 -39 -47 -38 -36 0
-28 -30 -32 -33 -12 -36 -38 -39 -13 -47 -48 -15 -53 -17 -18 0
-28 -13 -39 -38 -36 -12 -33 -32 -30 -18 -17 -15 -53 -48 -47 0
-36 -38 -39 -13 -28 -47 -48 -15 -30 -53 -17 -32 -18 -33 -12 0
-36 -30 -15 -48 -47 -28 -13 -39 -38 -12 -33 -32 -18 -17 -53 0
-47 -48 -15 -30 -36 -53 -17 -32 -38 -18 -33 -39 -12 -13 -28 0
-47 -38 -32 -17 -53 -36 -30 -15 -48 -28 -13 -39 -12 -33 -18 0
-53 -17 -32 -38 -47 -18 -33 -39 -48 -12 -13 -15 -28 -30 -36 0
-18 -33 -39 -48 -53 -12 -13 -15 -17 -28 -30 -32 -36 -38 -47 0
-53 -48 -39 -33 -18 -47 -38 -32 -17 -36 -30 -15 -28 -13 -12 0
-12 -13 -15 -17 -19 -28 -30 -32 -34 -36 -38 -40 -47 -49 -54 0
-19 -17 -15 -13 -12 -54 -49 -40 -34 -47 -38 -32 -36 -30 -28 0
-12 -34 -32 -30 -28 -19 -17 -15 -13 -54 -49 -40 -47 -38 -36 0
-28 -30 -32 -34 -12 -36 -38 -40 -13 -47 -49 -15 -54 -17 -19 0
-28 -13 -40 -38 -36 -12 -34 -32 -30 -19 -17 -15 -54 -49 -47 0
-36 -38 -40 -13 -28 -47 -49 -15 -30 -54 -17 -32 -19 -34 -12 0
-36 -30 -15 -49 -47 -28 -13 -40 -38 -12 -34 -32 -19 -17 -54 0
-47 -49 -15 -30 -36 -54 -17 -32 -38 -19 -34 -40 -12 -13 -28 0
-47 -38 -32 -17 -54 -36 -30 -15 -49 -28 -13 -40 -12 -34 -19 0
-54 -17 -32 -38 -47 -19 -34 -40 -49 -12 -13 -15 -28 -30 -36 0
-19 -34 -40 -49 -54 -12 -13 -15 -17 -28 -30 -32 -36 -38 -47 0
-54 -49 -40 -34 -19 -47 -38 -32 -17 -36 -30 -15 -28 -13 -12 0
-12 -13 -15 -18 -19 -28 -30 -33 -34 -36 -39 -40 -48 -49 -55 0
-19 -18 -15 -13 -12 -55 -49 -40 -34 -48 -39 -33 -36 -30 -28 0
-12 -34 -33 -30 -28 -19 -18 -15 -13 -55 -49 -40 -48 -39 -36 0
-28 -30 -33 -34 -12 -36 -39 -40 -13 -48 -49 -15 -55 -18 -19 0
-28 -13 -40 -39 -36 -12 -34 -33 -30 -19 -18 -15 -55 -49 -48 0
-36 -39 -40 -13 -28 -48 -49 -15 -30 -55 -18 -33 -19 -34 -12 0
-36 -30 -15 -49 -48 -28 -13 -40 -39 -12 -34 -33 -19 -18 -55 0
-48 -49 -15 -30 -36 -55 -18 -33 -39 -19 -34 -40 -12 -13 -28 0
-48 -39 -33 -18 -55 -36 -30 -15 -49 -28 -13 -40 -12 -34 -19 0
-55 -18 -33 -39 -48 -19 -34 -40 -49 -12 -13 -15 -28 -30 -36 0
-19 -34 -40 -49 -55 -12 -13 -15 -18 -28 -30 -33 -36 -39 -48 0
-55 -49 -40 -34 -19 -48 -39 -33 -18 -36 -30 -15 -28 -13 -12 0
-12 -13 -16 -17 -18 -28 -31 -32 -33 -37 -38 -39 -50 -51 -53 0
-18 -17 -16 -13 -12 -53 -51 -39 -33 -50 -38 -32 -37 -31 -28 0
-12 -33 -32 -31 -28 -18 -17 -16 -13 -53 -51 -39 -50 -38 -37 0
-28 -31 -32 -33 -12 -37 -38 -39 -13 -50 -51 -16 -53 -17 -18 0
-28 -13 -39 -38 -37 -12 -33 -32 -31 -18 -17 -16 -53 -51 -50 0
-37 -38 -39 -13 -28 -50 -51 -16 -31 -53 -17 -32 -18 -33 -12 0
-37 -31 -16 -51 -50 -28 -13 -39 -38 -12 -33 -32 -18 -17 -53 0
-50 -51 -16 -31 -37 -53 -17 -32 -38 -18 -33 -39 -12 -13 -28 0
-50 -38 -32 -17 -53 -37 -31 -16 -51 -28 -13 -39 -12 -33 -18 0
-53 -17 -32 -38 -50 -18 -33 -39 -51 -12 -13 -16 -28 -31 -37 0
-18 -33 -39 -51 -53 -12 -13 -16 -17 -28 -31 -32 -37 -38 -50 0
-53 -51 -39 -33 -18 -50 -38 -32 -17 -37 -31 -16 -28 -13 -12 0
-12 -13 -16 -17 -19 -28 -31 -32 -34 -37 -38 -40 -50 -52 -54 0
-19 -17 -16 -13 -12 -54 -52 -40 -34 -50 -38 -32 -37 -31 -28 0
-12 -34 -32 -31 -28 -19 -17 -16 -13 -54 -52 -40 -50 -38 -37 0
-28 -31 -32 -34 -12 -37 -38 -40 -13 -50 -52 -16 -54 -17 -19 0
-28 -13 -40 -38 -37 -12 -34 -32 -31 -19 -17 -16 -54 -52 -50 0
-37 -38 -40 -13 -28 -50 -52 -16 -31 -54 -17 -32 -19 -34 -12 0
-37 -31 -16 -52 -50 -28 -13 -40 -38 -12 -34 -32 -19 -17 -54 0
-50 -52 -16 -31 -37 -54 -17 -32 -38 -19 -34 -40 -12 -13 -28 0
-50 -38 -32 -17 -54 -37 -31 -16 -52 -28 -13 -40 -12 -34 -19 0
-54 -17 -32 -38 -50 -19 -34 -40 -52 -12 -13 -16 -28 -31 -37 0
-19 -34 -40 -52 -54 -12 -13 -16 -17 -28 -31 -32 -37 -38 -50 0
-54 -52 -40 -34 -19 -50 -38 -32 -17 -37 -31 -16 -28 -13 -12 0
-12 -13 -16 -18 -19 -28 -31 -33 -34 -37 -39 -40 -51 -52 -55 0
-19 -18 -16 -13 -12 -55 -52 -40 -34 -51 -39 -33 -37 -31 -28 0
-12 -34 -33 -31 -28 -19 -18 -16 -13 -55 -52 -40 -51 -39 -37 0
-28 -31 -33 -34 -12 -37 -39 -40 -13 -51 -52 -16 -55 -18 -19 0
-28 -13 -40 -39 -37 -12 -34 -33 -31 -19 -18 -16 -55 -52 -51 0
-37 -39 -40 -13 -28 -51 -52 -16 -31 -55 -18 -33 -19 -34 -12 0
-37 -31 -16 -52 -51 -28 -13 -40 -39 -12 -34 -33 -19 -18 -55 0
-51 -52 -16 -31 -37 -55 -18 -33 -39 -19 -34 -40 -12 -13 -28 0
-51 -39 -33 -18 -55 -37 -31 -16 -52 -28 -13 -40 -12 -34 -19 0
-55 -18 -33 -39 -51 -19 -34 -40 -52 -12 -13 -16 -28 -31 -37 0
-19 -34 -40 -52 -55 -12 -13 -16 -18 -28 -31 -33 -37 -39 -51 0
-55 -52 -40 -34 -19 -51 -39 -33 -18 -37 -31 -16 -28 -13 -12 0
-12 -13 -17 -18 -19 -28 -32 -33 -34 -38 -39 -40 -53 -54 -55 0
-19 -18 -17 -13 -12 -55 -54 -40 -34 -53 -39 -33 -38 -32 -28 0
-12 -34 -33 -32 -28 -19 -18 -17 -13 -55 -54 -40 -53 -39 -38 0
-28 -32 -33 -34 -12 -38 -39 -40 -13 -53 -54 -17 -55 -18 -19 0
-28 -13 -40 -39 -38 -12 -34 -33 -32 -19 -18 -17 -55 -54 -53 0
-38 -39 -40 -13 -28 -53 -54 -17 -32 -55 -18 -33 -19 -34 -12 0
-38 -32 -17 -54 -53 -28 -13 -40 -39 -12 -34 -33 -19 -18 -55 0
-53 -54 -17 -32 -38 -55 -18 -33 -39 -19 -34 -40 -12 -13 -28 0
-53 -39 -33 -18 -55 -38 -32 -17 -54 -28 -13 -40 -12 -34 -19 0
-55 -18 -33 -39 -53 -19 -34 -40 -54 -12 -13 -17 -28 -32 -38 0
-19 -34 -40 -54 -55 -12 -13 -17 -18 -28 -32 -33 -38 -39 -53 0
-55 -54 -40 -34 -19 -53 -39 -33 -18 -38 -32 -17 -28 -13 -12 0
-12 -14 -15 -16 -17 -29 -30 -31 -32 -41 -42 -43 -46 -47 -50 0
-17 -16 -15 -14 -12 -50 -47 -43 -32 -46 -42 -31 -41 -30 -29 0
-12 -32 -31 -30 -29 -17 -16 -15 -14 -50 -47 -43 -46 -42 -41 0
-29 -30 -31 -32 -12 -41 -42 -43 -14 -46 -47 -15 -50 -16 -17 0
-29 -14 -43 -42 -41 -12 -32 -31 -30 -17 -16 -15 -50 -47 -46 0
-41 -42 -43 -14 -29 -46 -47 -15 -30 -50 -16 -31 -17 -32 -12 0
-41 -30 -15 -47 -46 -29 -14 -43 -42 -12 -32 -31 -17 -16 -50 0
-46 -47 -15 -30 -41 -50 -16 -31 -42 -17 -32 -43 -12 -14 -29 0
-46 -42 -31 -16 -50 -41 -30 -15 -47 -29 -14 -43 -12 -32 -17 0
-50 -16 -31 -42 -46 -17 -32 -43 -47 -12 -14 -15 -29 -30 -41 0
-17 -32 -43 -47 -50 -12 -14 -15 -16 -29 -30 -31 -41 -42 -46 0
-50 -47 -43 -32 -17 -46 -42 -31 -16 -41 -30 -15 -29 -14 -12 0
-12 -14 -15 -16 -18 -29 -30 -31 -33 -41 -42 -44 -46 -48 -51 0
-18 -16 -15 -14 -12 -51 -48 -44 -33 -46 -42 -31 -41 -30 -29 0
-12 -33 -31 -30 -29 -18 -16 -15 -14 -51 -48 -44 -46 -42 -41 0
-29 -30 -31 -33 -12 -41 -42 -44 -14 -46 -48 -15 -51 -16 -18 0
-29 -14 -44 -42 -41 -12 -33 -31 -30 -18 -16 -15 -51 -48 -46 0
-41 -42 -44 -14 -29 -46 -48 -15 -30 -51 -16 -31 -18 -33 -12 0
-41 -30 -15 -48 -46 -29 -14 -44 -42 -12 -33 -31 -18 -16 -51 0
-46 -48 -15 -30 -41 -51 -16 -31 -42 -18 -33 -44 -12 -14 -29 0
-46 -42 -31 -16 -51 -41 -30 -15 -48 -29 -14 -44 -12 -33 -18 0
-51 -16 -31 -42 -46 -18 -33 -44 -48 -12 -14 -15 -29 -30 -41 0
-18 -33 -44 -48 -51 -12 -14 -15 -16 -29 -30 -31 -41 -42 -46 0
-51 -48 -44 -33 -18 -46 -42 -31 -16 -41 -30 -15 -29 -14 -12 0
-12 -14 -15 -16 -19 -29 -30 -31 -34 -41 -42 -45 -46 -49 -52 0
-19 -16 -15 -14 -12 -52 -49 -45 -34 -46 -42 -31 -41 -30 -29 0
-12 -34 -31 -30 -29 -19 -16 -15 -14 -52 -49 -45 -46 -42 -41 0
-29 -30 -31 -34 -12 -41 -42 -45 -14 -46 -49 -15 -52 -16 -19 0
-29 -14 -45 -42 -41 -12 -34 -31 -30 -19 -16 -15 -52 -49 -46 0
-41 -42 -45 -14 -29 -46 -49 -15 -30 -52 -16 -31 -19 -34 -12 0
-41 -30 -15 -49 -46 -29 -14 -45 -42 -12 -34 -31 -19 -16 -52 0
-46 -49 -15 -30 -41 -52 -16 -31 -42 -19 -34 -45 -12 -14 -29 0
-46 -42 -31 -16 -52 -41 -30 -15 -49 -29 -14 -45 -12 -34 -19 0
-52 -16 -31 -42 -46 -19 -34 -45 -49 -12 -14 -15 -29 -30 -41 0
-19 -34 -45 -49 -52 -12 -14 -15 -16 -29 -30 -31 -41 -42 -46 0
-52 -49 -45 -34 -19 -46 -42 -31 -16 -41 -30 -15 -29 -14 -12 0
-12 -14 -15 -17 -18 -29 -30 -32 -33 -41 -43 -44 -47 -48 -53 0
-18 -17 -15 -14 -12 -53 -48 -44 -33 -47 -43 -32 -41 -30 -29 0
-12 -33 -32 -30 -29 -18 -17 -15 -14 -53 -48 -44 -47 -43 -41 0
-29 -30 -32 -33 -12 -41 -43 -44 -14 -47 -48 -15 -53 -17 -18 0
-29 -14 -44 -43 -41 -12 -33 -32 -30 -18 -17 -15 -53 -48 -47 0
-41 -43 -44 -14 -29 -47 -48 -15 -30 -53 -17 -32 -18 -33 -12 0
-41 -30 -15 -48 -47 -29 -14 -44 -43 -12 -33 -32 -18 -17 -53 0
-47 -48 -15 -30 -41 -53 -17 -32 -43 -18 -33 -44 -12 -14 -29 0
-47 -43 -32 -17 -53 -41 -30 -15 -48 -29 -14 -44 -12 -33 -18 0
-53 -17 -32 -43 -47 -18 -33 -44 -48 -12 -14 -15 -29 -30 -41 0
-18 -33 -44 -48 -53 -12 -14 -15 -17 -29 -30 -32 -41 -43 -47 0
-53 -48 -44 -33 -18 -47 -43 -32 -17 -41 -30 -15 -29 -14 -12 0
-12 -14 -15 -17 -19 -29 -30 -32 -34 -41 -43 -45 -47 -49 -54 0
-19 -17 -15 -14 -12 -54 -49 -45 -34 -47 -43 -32 -41 -30 -29 0
-12 -34 -32 -30 -29 -19 -17 -15 -14 -54 -49 -45 -47 -43 -41 0
-29 -30 -32 -34 -12 -41 -43 -45 -14 -47 -49 -15 -54 -17 -19 0
-29 -14 -45 -43 -41 -12 -34 -32 -30 -19 -17 -15 -54 -49 -47 0
-41 -43 -45 -14 -29 -47 -49 -15 -30 -54 -17 -32 -19 -34 -12 0
-41 -30 -15 -49 -47 -29 -14 -45 -43 -12 -34 -32 -19 -17 -54 0
-47 -49 -15 -30 -41 -54 -17 -32 -43 -19 -34 -45 -12 -14 -29 0
-47 -43 -32 -17 -54 -41 -30 -15 -49 -29 -14 -45 -12 -34 -19 0
-54 -17 -32 -43 -47 -19 -34 -45 -49 -12 -14 -15 -29 -30 -41 0
-19 -34 -45 -49 -54 -12 -14 -15 -17 -29 -30 -32 -41 -43 -47 0
-54 -49 -45 -34 -19 -47 -43 -32 -17 -41 -30 -15 -29 -14 -12 0
-12 -14 -15 -18 -19 -29 -30 -33 -34 -41 -44 -45 -48 -49 -55 0
-19 -18 -15 -14 -12 -55 -49 -45 -34 -48 -44 -33 -41 -30 -29 0
-12 -34 -33 -30 -29 -19 -18 -15 -14 -55 -49 -45 -48 -44 -41 0
-29 -30 -33 -34 -12 -41 -44 -45 -14 -48 -49 -15 -55 -18 -19 0
-29 -14 -45 -44 -41 -12 -34 -33 -30 -19 -18 -15 -55 -49 -48 0
-41 -44 -45 -14 -29 -48 -49 -15 -30 -55 -18 -33 -19 -34 -12 0
-41 -30 -15 -49 -48 -29 -14 -45 -44 -12 -34 -33 -19 -18 -55 0
-48 -49 -15 -30 -41 -55 -18 -33 -44 -19 -34 -45 -12 -14 -29 0
-48 -44 -33 -18 -55 -41 -30 -15 -49 -29 -14 -45 -12 -34 -19 0
-55 -18 -33 -44 -48 -19 -34 -45 -49 -12 -14 -15 -29 -30 -41 0
-19 -34 -45 -49 -55 -12 -14 -15 -18 -29 -30 -33 -41 -44 -48 0
-55 -49 -45 -34 -19 -48 -44 -33 -18 -41 -30 -15 -29 -14 -12 0
-12 -14 -16 -17 -18 -29 -31 -32 -33 -42 -43 -44 -50 -51 -53 0
-18 -17 -16 -14 -12 -53 -51 -44 -33 -50 -43 -32 -42 -31 -29 0
-12 -33 -32 -31 -29 -18 -17 -16 -14 -53 -51 -44 -50 -43 -42 0
-29 -31 -32 -33 -12 -42 -43 -44 -14 -50 -51 -16 -53 -17 -18 0
-29 -14 -44 -43 -42 -12 -33 -32 -31 -18 -17 -16 -53 -51 -50 0
-42 -43 -44 -14 -29 -50 -51 -16 -31 -53 -17 -32 -18 -33 -12 0
-42 -31 -16 -51 -50 -29 -14 -44 -43 -12 -33 -32 -18 -17 -53 0
-50 -51 -16 -31 -42 -53 -17 -32 -43 -18 -33 -44 -12 -14 -29 0
-50 -43 -32 -17 -53 -42 -31 -16 -51 -29 -14 -44 -12 -33 -18 0
-53 -17 -32 -43 -50 -18 -33 -44 -51 -12 -14 -16 -29 -31 -42 0
-18 -33 -44 -51 -53 -12 -14 -16 -17 -29 -31 -32 -42 -43 -50 0
-53 -51 -44 -33 -18 -50 -43 -32 -17 -42 -31 -16 -29 -14 -12 0
-12 -14 -16 -17 -19 -29 -31 -32 -34 -42 -43 -45 -50 -52 -54 0
-19 -17 -16 -14 -12 -54 -52 -45 -34 -50 -43 -32 -42 -31 -29 0
-12 -34 -32 -31 -29 -19 -17 -16 -14 -54 -52 -45 -50 -43 -42 0
-29 -31 -32 -34 -12 -42 -43 -45 -14 -50 -52 -16 -54 -17 -19 0
-29 -14 -45 -43 -42 -12 -34 -32 -31 -19 -17 -16 -54 -52 -50 0
-42 -43 -45 -14 -29 -50 -52 -16 -31 -54 -17 -32 -19 -34 -12 0
-42 -31 -16 -52 -50 -29 -14 -45 -43 -12 -34 -32 -19 -17 -54 0
-50 -52 -16 -31 -42 -54 -17 -32 -43 -19 -34 -45 -12 -14 -29 0
-50 -43 -32 -17 -54 -42 -31 -16 -52 -29 -14 -45 -12 -34 -19 0
-54 -17 -32 -43 -50 -19 -34 -45 -52 -12 -14 -16 -29 -31 -42 0
-19 -34 -45 -52 -54 -12 -14 -16 -17 -29 -31 -32 -42 -43 -50 0
-54 -52 -45 -34 -19 -50 -43 -32 -17 -42 -31 -16 -29 -14 -12 0
-12 -14 -16 -18 -19 -29 -31 -33 -34 -42 -44 -45 -51 -52 -55 0
-19 -18 -16 -14 -12 -55 -52 -45 -34 -51 -44 -33 -42 -31 -29 0
-12 -34 -33 -31 -29 -19 -18 -16 -14 -55 -52 -45 -51 -44 -42 0
-29 -31 -33 -34 -12 -42 -44 -45 -14 -51 -52 -16 -55 -18 -19 0
-29 -14 -45 -44 -42 -12 -34 -33 -31 -19 -18 -16 -55 -52 -51 0
-42 -44 -45 -14 -29 -51 -52 -16 -31 -55 -18 -33 -19 -34 -12 0
-42 -31 -16 -52 -51 -29 -14 -45 -44 -12 -34 -33 -19 -18 -55 0
-51 -52 -16 -31 -42 -55 -18 -33 -44 -19 -34 -45 -12 -14 -29 0
-51 -44 -33 -18 -55 -42 -31 -16 -52 -29 -14 -45 -12 -34 -19 0
-55 -18 -33 -44 -51 -19 -34 -45 -52 -12 -14 -16 -29 -31 -42 0
-19 -34 -45 -52 -55 -12 -14 -16 -18 -29 -31 -33 -42 -44 -51 0
-55 -52 -45 -34 -19 -51 -44 -33 -18 -42 -31 -16 -29 -14 -12 0
-12 -14 -17 -18 -19 -29 -32 -33 -34 -43 -44 -45 -53 -54 -55 0
-19 -18 -17 -14 -12 -55 -54 -45 -34 -53 -44 -33 -43 -32 -29 0
-12 -34 -33 -32 -29 -19 -18 -17 -14 -55 -54 -45 -53 -44 -43 0
-29 -32 -33 -34 -12 -43 -44 -45 -14 -53 -54 -17 -55 -18 -19 0
-29 -14 -45 -44 -43 -12 -34 -33 -32 -19 -18 -17 -55 -54 -53 0
-43 -44 -45 -14 -29 -53 -54 -17 -32 -55 -18 -33 -19 -34 -12 0
-43 -32 -17 -54 -53 -29 -14 -45 -44 -12 -34 -33 -19 -18 -55 0
-53 -54 -17 -32 -43 -55 -18 -33 -44 -19 -34 -45 -12 -14 -29 0
-53 -44 -33 -18 -55 -43 -32 -17 -54 -29 -14 -45 -12 -34 -19 0
-55 -18 -33 -44 -53 -19 -34 -45 -54 -12 -14 -17 -29 -32 -43 0
-19 -34 -45 -54 -55 -12 -14 -17 -18 -29 -32 -33 -43 -44 -53 0
-55 -54 -45 -34 -19 -53 -44 -33 -18 -43 -32 -17 -29 -14 -12 0
-12 -15 -16 -17 -18 -30 -31 -32 -33 -46 -47 -48 -50 -51 -53 0
-18 -17 -16 -15 -12 -53 -51 -48 -33 -50 -47 -32 -46 -31 -30 0
-12 -33 -32 -31 -30 -18 -17 -16 -15 -53 -51 -48 -50 -47 -46 0
-30 -31 -32 -33 -12 -46 -47 -48 -15 -50 -51 -16 -53 -17 -18 0
-30 -15 -48 -47 -46 -12 -33 -32 -31 -18 -17 -16 -53 -51 -50 0
-46 -47 -48 -15 -30 -50 -51 -16 -31 -53 -17 -32 -18 -33 -12 0
-46 -31 -16 -51 -50 -30 -15 -48 -47 -12 -33 -32 -18 -17 -53 0
-50 -51 -16 -31 -46 -53 -17 -32 -47 -18 -33 -48 -12 -15 -30 0
-50 -47 -32 -17 -53 -46 -31 -16 -51 -30 -15 -48 -12 -33 -18 0
-53 -17 -32 -47 -50 -18 -33 -48 -51 -12 -15 -16 -30 -31 -46 0
-18 -33 -48 -51 -53 -12 -15 -16 -17 -30 -31 -32 -46 -47 -50 0
-53 -51 -48 -33 -18 -50 -47 -32 -17 -46 -31 -16 -30 -15 -12 0
-12 -15 -16 -17 -19 -30 -31 -32 -34 -46 -47 -49 -50 -52 -54 0
-19 -17 -16 -15 -12 -54 -52 -49 -34 -50 -47 -32 -46 -31 -30 0
-12 -34 -32 -31 -30 -19 -17 -16 -15 -54 -52 -49 -50 -47 -46 0
-30 -31 -32 -34 -12 -46 -47 -49 -15 -50 -52 -16 -54 -17 -19 0
-30 -15 -49 -47 -46 -12 -34 -32 -31 -19 -17 -16 -54 -52 -50 0
-46 -47 -49 -15 -30 -50 -52 -16 -31 -54 -17 -32 -19 -34 -12 0
-46 -31 -16 -52 -50 -30 -15 -49 -47 -12 -34 -32 -19 -17 -54 0
-50 -52 -16 -31 -46 -54 -17 -32 -47 -19 -34 -49 -12 -15 -30 0
-50 -47 -32 -17 -54 -46 -31 -16 -52 -30 -15 -49 -12 -34 -19 0
-54 -17 -32 -47 -50 -19 -34 -49 -52 -12 -15 -16 -30 -31 -46 0
-19 -34 -49 -52 -54 -12 -15 -16 -17 -30 -31 -32 -46 -47 -50 0
-54 -52 -49 -34 -19 -50 -47 -32 -17 -46 -31 -16 -30 -15 -12 0
-12 -15 -16 -18 -19 -30 -31 -33 -34 -46 -48 -49 -51 -52 -55 0
-19 -18 -16 -15 -12 -55 -52 -49 -34 -51 -48 -33 -46 -31 -30 0
-12 -34 -33 -31 -30 -19 -18 -16 -15 -55 -52 -49 -51 -48 -46 0
-30 -31 -33 -34 -12 -46 -48 -49 -15 -51 -52 -16 -55 -18 -19 0
-30 -15 -49 -48 -46 -12 -34 -33 -31 -19 -18 -16 -55 -52 -51 0
-46 -48 -49 -15 -30 -51 -52 -16 -31 -55 -18 -33 -19 -34 -12 0
-46 -31 -16 -52 -51 -30 -15 -49 -48 -12 -34 -33 -19 -18 -55 0
-51 -52 -16 -31 -46 -55 -18 -33 -48 -19 -34 -49 -12 -15 -30 0
-51 -48 -33 -18 -55 -46 -31 -16 -52 -30 -15 -49 -12 -34 -19 0
-55 -18 -33 -48 -51 -19 -34 -49 -52 -12 -15 -16 -30 -31 -46 0
-19 -34 -49 -52 -55 -12 -15 -16 -18 -30 -31 -33 -46 -48 -51 0
-55 -52 -49 -34 -19 -51 -48 -33 -18 -46 -31 -16 -30 -15 -12 0
-12 -15 -17 -18 -19 -30 -32 -33 -34 -47 -48 -49 -53 -54 -55 0
-19 -18 -17 -15 -12 -55 -54 -49 -34 -53 -48 -33 -47 -32 -30 0
-12 -34 -33 -32 -30 -19 -18 -17 -15 -55 -54 -49 -53 -48 -47 0
-30 -32 -33 -34 -12 -47 -48 -49 -15 -53 -54 -17 -55 -18 -19 0
-30 -15 -49 -48 -47 -12 -34 -33 -32 -19 -18 -17 -55 -54 -53 0
-47 -48 -49 -15 -30 -53 -54 -17 -32 -55 -18 -33 -19 -34 -12 0
-47 -32 -17 -54 -53 -30 -15 -49 -48 -12 -34 -33 -19 -18 -55 0
-53 -54 -17 -32 -47 -55 -18 -33 -48 -19 -34 -49 -12 -15 -30 0
-53 -48 -33 -18 -55 -47 -32 -17 -54 -30 -15 -49 -12 -34 -19 0
-55 -18 -33 -48 -53 -19 -34 -49 -54 -12 -15 -17 -30 -32 -47 0
-19 -34 -49 -54 -55 -12 -15 -17 -18 -30 -32 -33 -47 -48 -53 0
-55 -54 -49 -34 -19 -53 -48 -33 -18 -47 -32 -17 -30 -15 -12 0
-12 -16 -17 -18 -19 -31 -32 -33 -34 -50 -51 -52 -53 -54 -55 0
-19 -18 -17 -16 -12 -55 -54 -52 -34 -53 -51 -33 -50 -32 -31 0
-12 -34 -33 -32 -31 -19 -18 -17 -16 -55 -54 -52 -53 -51 -50 0
-31 -32 -33 -34 -12 -50 -51 -52 -16 -53 -54 -17 -55 -18 -19 0
-31 -16 -52 -51 -50 -12 -34 -33 -32 -19 -18 -17 -55 -54 -53 0
-50 -51 -52 -16 -31 -53 -54 -17 -32 -55 -18 -33 -19 -34 -12 0
-50 -32 -17 -54 -53 -31 -16 -52 -51 -12 -34 -33 -19 -18 -55 0
-53 -54 -17 -32 -50 -55 -18 -33 -51 -19 -34 -52 -12 -16 -31 0
-53 -51 -33 -18 -55 -50 -32 -17 -54 -31 -16 -52 -12 -34 -19 0
-55 -18 -33 -51 -53 -19 -34 -52 -54 -12 -16 -17 -31 -32 -50 0
-19 -34 -52 -54 -55 -12 -16 -17 -18 -31 -32 -33 -50 -51 -53 0
-55 -54 -52 -34 -19 -53 -51 -33 -18 -50 -32 -17 -31 -16 -12 0
-13 -14 -15 -16 -17 -35 -36 -37 -38 -41 -42 -43 -46 -47 -50 0
-17 -16 -15 -14 -13 -50 -47 -43 -38 -46 -42 -37 -41 -36 -35 0
-13 -38 -37 -36 -35 -17 -16 -15 -14 -50 -47 -43 -46 -42 -41 0
-35 -36 -37 -38 -13 -41 -42 -43 -14 -46 -47 -15 -50 -16 -17 0
-35 -14 -43 -42 -41 -13 -38 -37 -36 -17 -16 -15 -50 -47 -46 0
-41 -42 -43 -14 -35 -46 -47 -15 -36 -50 -16 -37 -17 -38 -13 0
-41 -36 -15 -47 -46 -35 -14 -43 -42 -13 -38 -37 -17 -16 -50 0
-46 -47 -15 -36 -41 -50 -16 -37 -42 -17 -38 -43 -13 -14 -35 0
-46 -42 -37 -16 -50 -41 -36 -15 -47 -35 -14 -43 -13 -38 -17 0
-50 -16 -37 -42 -46 -17 -38 -43 -47 -13 -14 -15 -35 -36 -41 0
-17 -38 -43 -47 -50 -13 -14 -15 -16 -35 -36 -37 -41 -42 -46 0
-50 -47 -43 -38 -17 -46 -42 -37 -16 -41 -36 -15 -35 -14 -13 0
-13 -14 -15 -16 -18 -35 -36 -37 -39 -41 -42 -44 -46 -48 -51 0
-18 -16 -15 -14 -13 -51 -48 -44 -39 -46 -42 -37 -41 -36 -35 0
-13 -39 -37 -36 -35 -18 -16 -15 -14 -51 -48 -44 -46 -42 -41 0
-35 -36 -37 -39 -13 -41 -42 -44 -14 -46 -48 -15 -51 -16 -18 0
-35 -14 -44 -42 -41 -13 -39 -37 -36 -18 -16 -15 -51 -48 -46 0
-41 -42 -44 -14 -35 -46 -48 -15 -36 -51 -16 -37 -18 -39 -13 0
-41 -36 -15 -48 -46 -35 -14 -44 -42 -13 -39 -37 -18 -16 -51 0
-46 -48 -15 -36 -41 -51 -16 -37 -42 -18 -39 -44 -13 -14 -35 0
-46 -42 -37 -16 -51 -41 -36 -15 -48 -35 -14 -44 -13 -39 -18 0
-51 -16 -37 -42 -46 -18 -39 -44 -48 -13 -14 -15 -35 -36 -41 0
-18 -39 -44 -48 -51 -13 -14 -15 -16 -35 -36 -37 -41 -42 -46 0
-51 -48 -44 -39 -18 -46 -42 -37 -16 -41 -36 -15 -35 -14 -13 0
-13 -14 -15 -16 -19 -35 -36 -37 -40 -41 -42 -45 -46 -49 -52 0
-19 -16 -15 -14 -13 -52 -49 -45 -40 -46 -42 -37 -41 -36 -35 0
-13 -40 -37 -36 -35 -19 -16 -15 -14 -52 -49 -45 -46 -42 -41 0
-35 -36 -37 -40 -13 -41 -42 -45 -14 -46 -49 -15 -52 -16 -19 0
-35 -14 -45 -42 -41 -13 -40 -37 -36 -19 -16 -15 -52 -49 -46 0
-41 -42 -45 -14 -35 -46 -49 -15 -36 -52 -16 -37 -19 -40 -13 0
-41 -36 -15 -49 -46 -35 -14 -45 -42 -13 -40 -37 -19 -16 -52 0
-46 -49 -15 -36 -41 -52 -16 -37 -42 -19 -40 -45 -13 -14 -35 0
-46 -42 -37 -16 -52 -41 -36 -15 -49 -35 -14 -45 -13 -40 -19 0
-52 -16 -37 -42 -46 -19 -40 -45 -49 -13 -14 -15 -35 -36 -41 0
-19 -40 -45 -49 -52 -13 -14 -15 -16 -35 -36 -37 -41 -42 -46 0
-52 -49 -45 -40 -19 -46 -42 -37 -16 -41 -36 -15 -35 -14 -13 0
-13 -14 -15 -17 -18 -35 -36 -38 -39 -41 -43 -44 -47 -48 -53 0
-18 -17 -15 -14 -13 -53 -48 -44 -39 -47 -43 -38 -41 -36 -35 0
-13 -39 -38 -36 -35 -18 -17 -15 -14 -53 -48 -44 -47 -43 -41 0
-35 -36 -38 -39 -13 -41 -43 -44 -14 -47 -48 -15 -53 -17 -18 0
-35 -14 -44 -43 -41 -13 -39 -38 -36 -18 -17 -15 -53 -48 -47 0
-41 -43 -44 -14 -35 -47 -48 -15 -36 -53 -17 -38 -18 -39 -13 0
-41 -36 -15 -48 -47 -35 -14 -44 -43 -13 -39 -38 -18 -17 -53 0
-47 -48 -15 -36 -41 -53 -17 -38 -43 -18 -39 -44 -13 -14 -35 0
-47 -43 -38 -17 -53 -41 -36 -15 -48 -35 -14 -44 -13 -39 -18 0
-53 -17 -38 -43 -47 -18 -39 -44 -48 -13 -14 -15 -35 -36 -41 0
-18 -39 -44 -48 -53 -13 -14 -15 -17 -35 -36 -38 -41 -43 -47 0
-53 -48 -44 -39 -18 -47 -43 -38 -17 -41 -36 -15 -35 -14 -13 0
-13 -14 -15 -17 -19 -35 -36 -38 -40 -41 -43 -45 -47 -49 -54 0
-19 -17 -15 -14 -13 -54 -49 -45 -40 -47 -43 -38 -41 -36 -35 0
-13 -40 -38 -36 -35 -19 -17 -15 -14 -54 -49 -45 -47 -43 -41 0
-35 -36 -38 -40 -13 -41 -43 -45 -14 -47 -49 -15 -54 -17 -19 0
-35 -14 -45 -43 -41 -13 -40 -38 -36 -19 -17 -15 -54 -49 -47 0
-41 -43 -45 -14 -35 -47 -49 -15 -36 -54 -17 -38 -19 -40 -13 0
-41 -36 -15 -49 -47 -35 -14 -45 -43 -13 -40 -38 -19 -17 -54 0
-47 -49 -15 -36 -41 -54 -17 -38 -43 -19 -40 -45 -13 -14 -35 0
-47 -43 -38 -17 -54 -41 -36 -15 -49 -35 -14 -45 -13 -40 -19 0
-54 -17 -38 -43 -47 -19 -40 -45 -49 -13 -14 -15 -35 -36 -41 0
-19 -40 -45 -49 -54 -13 -14 -15 -17 -35 -36 -38 -41 -43 -47 0
-54 -49 -45 -40 -19 -47 -43 -38 -17 -41 -36 -15 -35 -14 -13 0
-13 -14 -15 -18 -19 -35 -36 -39 -40 -41 -44 -45 -48 -49 -55 0
-19 -18 -15 -14 -13 -55 -49 -45 -40 -48 -44 -39 -41 -36 -35 0
-13 -40 -39 -36 -35 -19 -18 -15 -14 -55 -49 -45 -48 -44 -41 0
-35 -36 -39 -40 -13 -41 -44 -45 -14 -48 -49 -15 -55 -18 -19 0
-35 -14 -45 -44 -41 -13 -40 -39 -36 -19 -18 -15 -55 -49 -48 0
-41 -44 -45 -14 -35 -48 -49 -15 -36 -55 -18 -39 -19 -40 -13 0
-41 -36 -15 -49 -48 -35 -14 -45 -44 -13 -40 -39 -19 -18 -55 0
-48 -49 -15 -36 -41 -55 -18 -39 -44 -19 -40 -45 -13 -14 -35 0
-48 -44 -39 -18 -55 -41 -36 -15 -49 -35 -14 -45 -13 -40 -19 0
-55 -18 -39 -44 -48 -19 -40 -45 -49 -13 -14 -15 -35 -36 -41 0
-19 -40 -45 -49 -55 -13 -14 -15 -18 -35 -36 -39 -41 -44 -48 0
-55 -49 -45 -40 -19 -48 -44 -39 -18 -41 -36 -15 -35 -14 -13 0
-13 -14 -16 -17 -18 -35 -37 -38 -39 -42 -43 -44 -50 -51 -53 0
-18 -17 -16 -14 -13 -53 -51 -44 -39 -50 -43 -38 -42 -37 -35 0
-13 -39 -38 -37 -35 -18 -17 -16 -14 -53 -51 -44 -50 -43 -42 0
-35 -37 -38 -39 -13 -42 -43 -44 -14 -50 -51 -16 -53 -17 -18 0
-35 -14 -44 -43 -42 -13 -39 -38 -37 -18 -17 -16 -53 -51 -50 0
-42 -43 -44 -14 -35 -50 -51 -16 -37 -53 -17 -38 -18 -39 -13 0
-42 -37 -16 -51 -50 -35 -14 -44 -43 -13 -39 -38 -18 -17 -53 0
-50 -51 -16 -37 -42 -53 -17 -38 -43 -18 -39 -44 -13 -14 -35 0
-50 -43 -38 -17 -53 -42 -37 -16 -51 -35 -14 -44 -13 -39 -18 0
-53 -17 -38 -43 -50 -18 -39 -44 -51 -13 -14 -16 -35 -37 -42 0
-18 -39 -44 -51 -53 -13 -14 -16 -17 -35 -37 -38 -42 -43 -50 0
-53 -51 -44 -39 -18 -50 -43 -38 -17 -42 -37 -16 -35 -14 -13 0
-13 -14 -16 -17 -19 -35 -37 -38 -40 -42 -43 -45 -50 -52 -54 0
-19 -17 -16 -14 -13 -54 -52 -45 -40 -50 -43 -38 -42 -37 -35 0
-13 -40 -38 -37 -35 -19 -17 -16 -14 -54 -52 -45 -50 -43 -42 0
-35 -37 -38 -40 -13 -42 -43 -45 -14 -50 -52 -16 -54 -17 -19 0
-35 -14 -45 -43 -42 -13 -40 -38 -37 -19 -17 -16 -54 -52 -50 0
-42 -43 -45 -14 -35 -50 -52 -16 -37 -54 -17 -38 -19 -40 -13 0
-42 -37 -16 -52 -50 -35 -14 -45 -43 -13 -40 -38 -19 -17 -54 0
-50 -52 -16 -37 -42 -54 -17 -38 -43 -19 -40 -45 -13 -14 -35 0
-50 -43 -38 -17 -54 -42 -37 -16 -52 -35 -14 -45 -13 -40 -19 0
-54 -17 -38 -43 -50 -19 -40 -45 -52 -13 -14 -16 -35 -37 -42 0
-19 -40 -45 -52 -54 -13 -14 -16 -17 -35 -37 -38 -42 -43 -50 0
-54 -52 -45 -40 -19 -50 -43 -38 -17 -42 -37 -16 -35 -14 -13 0
-13 -14 -16 -18 -19 -35 -37 -39 -40 -42 -44 -45 -51 -52 -55 0
-19 -18 -16 -14 -13 -55 -52 -45 -40 -51 -44 -39 -42 -37 -35 0
-13 -40 -39 -37 -35 -19 -18 -16 -14 -55 -52 -45 -51 -44 -42 0
-35 -37 -39 -40 -13 -42 -44 -45 -14 -51 -52 -16 -55 -18 -19 0
-35 -14 -45 -44 -42 -13 -40 -39 -37 -19 -18 -16 -55 -52 -51 0
-42 -44 -45 -14 -35 -51 -52 -16 -37 -55 -18 -39 -19 -40 -13 0
-42 -37 -16 -52 -51 -35 -14 -45 -44 -13 -40 -39 -19 -18 -55 0
-51 -52 -16 -37 -42 -55 -18 -39 -44 -19 -40 -45 -13 -14 -35 0
-51 -44 -39 -18 -55 -42 -37 -16 -52 -35 -14 -45 -13 -40 -19 0
-55 -18 -39 -44 -51 -19 -40 -45 -52 -13 -14 -16 -35 -37 -42 0
-19 -40 -45 -52 -55 -13 -14 -16 -18 -35 -37 -39 -42 -44 -51 0
-55 -52 -45 -40 -19 -51 -44 -39 -18 -42 -37 -16 -35 -14 -13 0
-13 -14 -17 -18 -19 -35 -38 -39 -40 -43 -44 -45 -53 -54 -55 0
-19 -18 -17 -14 -13 -55 -54 -45 -40 -53 -44 -39 -43 -38 -35 0
-13 -40 -39 -38 -35 -19 -18 -17 -14 -55 -54 -45 -53 -44 -43 0
-35 -38 -39 -40 -13 -43 -44 -45 -14 -53 -54 -17 -55 -18 -19 0
-35 -14 -45 -44 -43 -13 -40 -39 -38 -19 -18 -17 -55 -54 -53 0
-43 -44 -45 -14 -35 -53 -54 -17 -38 -55 -18 -39 -19 -40 -13 0
-43 -38 -17 -54 -53 -35 -14 -45 -44 -13 -40 -39 -19 -18 -55 0
-53 -54 -17 -38 -43 -55 -18 -39 -44 -19 -40 -45 -13 -14 -35 0
-53 -44 -39 -18 -55 -43 -38 -17 -54 -35 -14 -45 -13 -40 -19 0
-55 -18 -39 -44 -53 -19 -40 -45 -54 -13 -14 -17 -35 -38 -43 0
-19 -40 -45 -54 -55 -13 -14 -17 -18 -35 -38 -39 -43 -44 -53 0
-55 -54 -45 -40 -19 -53 -44 -39 -18 -43 -38 -17 -35 -14 -13 0
-13 -15 -16 -17 -18 -36 -37 -38 -39 -46 -47 -48 -50 -51 -53 0
-18 -17 -16 -15 -13 -53 -51 -48 -39 -50 -47 -38 -46 -37 -36 0
-13 -39 -38 -37 -36 -18 -17 -16 -15 -53 -51 -48 -50 -47 -46 0
-36 -37 -38 -39 -13 -46 -47 -48 -15 -50 -51 -16 -53 -17 -18 0
-36 -15 -48 -47 -46 -13 -39 -38 -37 -18 -17 -16 -53 -51 -50 0
-46 -47 -48 -15 -36 -50 -51 -16 -37 -53 -17 -38 -18 -39 -13 0
-46 -37 -16 -51 -50 -36 -15 -48 -47 -13 -39 -38 -18 -17 -53 0
-50 -51 -16 -37 -46 -53 -17 -38 -47 -18 -39 -48 -13 -15 -36 0
-50 -47 -38 -17 -53 -46 -37 -16 -51 -36 -15 -48 -13 -39 -18 0
-53 -17 -38 -47 -50 -18 -39 -48 -51 -13 -15 -16 -36 -37 -46 0
-18 -39 -48 -51 -53 -13 -15 -16 -17 -36 -37 -38 -46 -47 -50 0
-53 -51 -48 -39 -18 -50 -47 -38 -17 -46 -37 -16 -36 -15 -13 0
-13 -15 -16 -17 -19 -36 -37 -38 -40 -46 -47 -49 -50 -52 -54 0
-19 -17 -16 -15 -13 -54 -52 -49 -40 -50 -47 -38 -46 -37 -36 0
-13 -40 -38 -37 -36 -19 -17 -16 -15 -54 -52 -49 -50 -47 -46 0
-36 -37 -38 -40 -13 -46 -47 -49 -15 -50 -52 -16 -54 -17 -19 0
-36 -15 -49 -47 -46 -13 -40 -38 -37 -19 -17 -16 -54 -52 -50 0
-46 -47 -49 -15 -36 -50 -52 -16 -37 -54 -17 -38 -19 -40 -13 0
-46 -37 -16 -52 -50 -36 -15 -49 -47 -13 -40 -38 -19 -17 -54 0
-50 -52 -16 -37 -46 -54 -17 -38 -47 -19 -40 -49 -13 -15 -36 0
-50 -47 -38 -17 -54 -46 -37 -16 -52 -36 -15 -49 -13 -40 -19 0
-54 -17 -38 -47 -50 -19 -40 -49 -52 -13 -15 -16 -36 -37 -46 0
-19 -40 -49 -52 -54 -13 -15 -16 -17 -36 -37 -38 -46 -47 -50 0
-54 -52 -49 -40 -19 -50 -47 -38 -17 -46 -37 -16 -36 -15 -13 0
-13 -15 -16 -18 -19 -36 -37 -39 -40 -46 -48 -49 -51 -52 -55 0
-19 -18 -16 -15 -13 -55 -52 -49 -40 -51 -48 -39 -46 -37 -36 0
-13 -40 -39 -37 -36 -19 -18 -16 -15 -55 -52 -49 -51 -48 -46 0
-36 -37 -39 -40 -13 -46 -48 -49 -15 -51 -52 -16 -55 -18 -19 0
-36 -15 -49 -48 -46 -13 -40 -39 -37 -19 -18 -16 -55 -52 -51 0
-46 -48 -49 -15 -36 -51 -52 -16 -37 -55 -18 -39 -19 -40 -13 0
-46 -37 -16 -52 -51 -36 -15 -49 -48 -13 -40 -39 -19 -18 -55 0
-51 -52 -16 -37 -46 -55 -18 -39 -48 -19 -40 -49 -13 -15 -36 0
-51 -48 -39 -18 -55 -46 -37 -16 -52 -36 -15 -49 -13 -40 -19 0
-55 -18 -39 -48 -51 -19 -40 -49 -52 -13 -15 -16 -36 -37 -46 0
-19 -40 -49 -52 -55 -13 -15 -16 -18 -36 -37 -39 -46 -48 -51 0
-55 -52 -49 -40 -19 -51 -48 -39 -18 -46 -37 -16 -36 -15 -13 0
-13 -15 -17 -18 -19 -36 -38 -39 -40 -47 -48 -49 -53 -54 -55 0
-19 -18 -17 -15 -13 -55 -54 -49 -40 -53 -48 -39 -47 -38 -36 0
-13 -40 -39 -38 -36 -19 -18 -17 -15 -55 -54 -49 -53 -48 -47 0
-36 -38 -39 -40 -13 -47 -48 -49 -15 -53 -54 -17 -55 -18 -19 0
-36 -15 -49 -48 -47 -13 -40 -39 -38 -19 -18 -17 -55 -54 -53 0
-47 -48 -49 -15 -36 -53 -54 -17 -38 -55 -18 -39 -19 -40 -13 0
-47 -38 -17 -54 -53 -36 -15 -49 -48 -13 -40 -39 -19 -18 -55 0
-53 -54 -17 -38 -47 -55 -18 -39 -48 -19 -40 -49 -13 -15 -36 0
-53 -48 -39 -18 -55 -47 -38 -17 -54 -36 -15 -49 -13 -40 -19 0
-55 -18 -39 -48 -53 -19 -40 -49 -54 -13 -15 -17 -36 -38 -47 0
-19 -40 -49 -54 -55 -13 -15 -17 -18 -36 -38 -39 -47 -48 -53 0
-55 -54 -49 -40 -19 -53 -48 -39 -18 -47 -38 -17 -36 -15 -13 0
-13 -16 -17 -18 -19 -37 -38 -39 -40 -50 -51 -52 -53 -54 -55 0
-19 -18 -17 -16 -13 -55 -54 -52 -40 -53 -51 -39 -50 -38 -37 0
-13 -40 -39 -38 -37 -19 -18 -17 -16 -55 -54 -52 -53 -51 -50 0
-37 -38 -39 -40 -13 -50 -51 -52 -16 -53 -54 -17 -55 -18 -19 0
-37 -16 -52 -51 -50 -13 -40 -39 -38 -19 -18 -17 -55 -54 -53 0
-50 -51 -52 -16 -37 -53 -54 -17 -38 -55 -18 -39 -19 -40 -13 0
-50 -38 -17 -54 -53 -37 -16 -52 -51 -13 -40 -39 -19 -18 -55 0
-53 -54 -17 -38 -50 -55 -18 -39 -51 -19 -40 -52 -13 -16 -37 0
-53 -51 -39 -18 -55 -50 -38 -17 -54 -37 -16 -52 -13 -40 -19 0
-55 -18 -39 -51 -53 -19 -40 -52 -54 -13 -16 -17 -37 -38 -50 0
-19 -40 -52 -54 -55 -13 -16 -17 -18 -37 -38 -39 -50 -51 -53 0
-55 -54 -52 -40 -19 -53 -51 -39 -18 -50 -38 -17 -37 -16 -13 0
-14 -15 -16 -17 -18 -41 -42 -43 -44 -46 -47 -48 -50 -51 -53 0
-18 -17 -16 -15 -14 -53 -51 -48 -44 -50 -47 -43 -46 -42 -41 0
-14 -44 -43 -42 -41 -18 -17 -16 -15 -53 -51 -48 -50 -47 -46 0
-41 -42 -43 -44 -14 -46 -47 -48 -15 -50 -51 -16 -53 -17 -18 0
-41 -15 -48 -47 -46 -14 -44 -43 -42 -18 -17 -16 -53 -51 -50 0
-46 -47 -48 -15 -41 -50 -51 -16 -42 -53 -17 -43 -18 -44 -14 0
-46 -42 -16 -51 -50 -41 -15 -48 -47 -14 -44 -43 -18 -17 -53 0
-50 -51 -16 -42 -46 -53 -17 -43 -47 -18 -44 -48 -14 -15 -41 0
-50 -47 -43 -17 -53 -46 -42 -16 -51 -41 -15 -48 -14 -44 -18 0
-53 -17 -43 -47 -50 -18 -44 -48 -51 -14 -15 -16 -41 -42 -46 0
-18 -44 -48 -51 -53 -14 -15 -16 -17 -41 -42 -43 -46 -47 -50 0
-53 -51 -48 -44 -18 -50 -47 -43 -17 -46 -42 -16 -41 -15 -14 0
-14 -15 -16 -17 -19 -41 -42 -43 -45 -46 -47 -49 -50 -52 -54 0
-19 -17 -16 -15 -14 -54 -52 -49 -45 -50 -47 -43 -46 -42 -41 0
-14 -45 -43 -42 -41 -19 -17 -16 -15 -54 -52 -49 -50 -47 -46 0
-41 -42 -43 -45 -14 -46 -47 -49 -15 -50 -52 -16 -54 -17 -19 0
-41 -15 -49 -47 -46 -14 -45 -43 -42 -19 -17 -16 -54 -52 -50 0
-46 -47 -49 -15 -41 -50 -52 -16 -42 -54 -17 -43 -19 -45 -14 0
-46 -42 -16 -52 -50 -41 -15 -49 -47 -14 -45 -43 -19 -17 -54 0
-50 -52 -16 -42 -46 -54 -17 -43 -47 -19 -45 -49 -14 -15 -41 0
-50 -47 -43 -17 -54 -46 -42 -16 -52 -41 -15 -49 -14 -45 -19 0
-54 -17 -43 -47 -50 -19 -45 -49 -52 -14 -15 -16 -41 -42 -46 0
-19 -45 -49 -52 -54 -14 -15 -16 -17 -41 -42 -43 -46 -47 -50 0
-54 -52 -49 -45 -19 -50 -47 -43 -17 -46 -42 -16 -41 -15 -14 0
-14 -15 -16 -18 -19 -41 -42 -44 -45 -46 -48 -49 -51 -52 -55 0
-19 -18 -16 -15 -14 -55 -52 -49 -45 -51 -48 -44 -46 -42 -41 0
-14 -45 -44 -42 -41 -19 -18 -16 -15 -55 -52 -49 -51 -48 -46 0
-41 -42 -44 -45 -14 -46 -48 -49 -15 -51 -52 -16 -55 -18 -19 0
-41 -15 -49 -48 -46 -14 -45 -44 -42 -19 -18 -16 -55 -52 -51 0
-46 -48 -49 -15 -41 -51 -52 -16 -42 -55 -18 -44 -19 -45 -14 0
-46 -42 -16 -52 -51 -41 -15 -49 -48 -14 -45 -44 -19 -18 -55 0
-51 -52 -16 -42 -46 -55 -18 -44 -48 -19 -45 -49 -14 -15 -41 0
-51 -48 -44 -18 -55 -46 -42 -16 -52 -41 -15 -49 -14 -45 -19 0
-55 -18 -44 -48 -51 -19 -45 -49 -52 -14 -15 -16 -41 -42 -46 0
-19 -45 -49 -52 -55 -14 -15 -16 -18 -41 -42 -44 -46 -48 -51 0
-55 -52 -49 -45 -19 -51 -48 -44 -18 -46 -42 -16 -41 -15 -14 0
-14 -15 -17 -18 -19 -41 -43 -44 -45 -47 -48 -49 -53 -54 -55 0
-19 -18 -17 -15 -14 -55 -54 -49 -45 -53 -48 -44 -47 -43 -41 0
-14 -45 -44 -43 -41 -19 -18 -17 -15 -55 -54 -49 -53 -48 -47 0
-41 -43 -44 -45 -14 -47 -48 -49 -15 -53 -54 -17 -55 -18 -19 0
-41 -15 -49 -48 -47 -14 -45 -44 -43 -19 -18 -17 -55 -54 -53 0
-47 -48 -49 -15 -41 -53 -54 -17 -43 -55 -18 -44 -19 -45 -14 0
-47 -43 -17 -54 -53 -41 -15 -49 -48 -14 -45 -44 -19 -18 -55 0
-53 -54 -17 -43 -47 -55 -18 -44 -48 -19 -45 -49 -14 -15 -41 0
-53 -48 -44 -18 -55 -47 -43 -17 -54 -41 -15 -49 -14 -45 -19 0
-55 -18 -44 -48 -53 -19 -45 -49 -54 -14 -15 -17 -41 -43 -47 0
-19 -45 -49 -54 -55 -14 -15 -17 -18 -41 -43 -44 -47 -48 -53 0
-55 -54 -49 -45 -19 -53 -48 -44 -18 -47 -43 -17 -41 -15 -14 0
-14 -16 -17 -18 -19 -42 -43 -44 -45 -50 -51 -52 -53 -54 -55 0
-19 -18 -17 -16 -14 -55 -54 -52 -45 -53 -51 -44 -50 -43 -42 0
-14 -45 -44 -43 -42 -19 -18 -17 -16 -55 -54 -52 -53 -51 -50 0
-42 -43 -44 -45 -14 -50 -51 -52 -16 -53 -54 -17 -55 -18 -19 0
-42 -16 -52 -51 -50 -14 -45 -44 -43 -19 -18 -17 -55 -54 -53 0
-50 -51 -52 -16 -42 -53 -54 -17 -43 -55 -18 -44 -19 -45 -14 0
-50 -43 -17 -54 -53 -42 -16 -52 -51 -14 -45 -44 -19 -18 -55 0
-53 -54 -17 -43 -50 -55 -18 -44 -51 -19 -45 -52 -14 -16 -42 0
-53 -51 -44 -18 -55 -50 -43 -17 -54 -42 -16 -52 -14 -45 -19 0
-55 -18 -44 -51 -53 -19 -45 -52 -54 -14 -16 -17 -42 -43 -50 0
-19 -45 -52 -54 -55 -14 -16 -17 -18 -42 -43 -44 -50 -51 -53 0
-55 -54 -52 -45 -19 -53 -51 -44 -18 -50 -43 -17 -42 -16 -14 0
-15 -16 -17 -18 -19 -46 -47 -48 -49 -50 -51 -52 -53 -54 -55 0
-19 -18 -17 -16 -15 -55 -54 -52 -49 -53 -51 -48 -50 -47 -46 0
-15 -49 -48 -47 -46 -19 -18 -17 -16 -55 -54 -52 -53 -51 -50 0
-46 -47 -48 -49 -15 -50 -51 -52 -16 -53 -54 -17 -55 -18 -19 0
-46 -16 -52 -51 -50 -15 -49 -48 -47 -19 -18 -17 -55 -54 -53 0
-50 -51 -52 -16 -46 -53 -54 -17 -47 -55 -18 -48 -19 -49 -15 0
-50 -47 -17 -54 -53 -46 -16 -52 -51 -15 -49 -48 -19 -18 -55 0
-53 -54 -17 -47 -50 -55 -18 -48 -51 -19 -49 -52 -15 -16 -46 0
-53 -51 -48 -18 -55 -50 -47 -17 -54 -46 -16 -52 -15 -49 -19 0
-55 -18 -48 -51 -53 -19 -49 -52 -54 -15 -16 -17 -46 -47 -50 0
-19 -49 -52 -54 -55 -15 -16 -17 -18 -46 -47 -48 -50 -51 -53 0
-55 -54 -52 -49 -19 -53 -51 -48 -18 -50 -47 -17 -46 -16 -15 0
-20 -21 -22 -23 -24 -28 -29 -30 -31 -35 -36 -37 -41 -42 -46 0
-24 -23 -22 -21 -20 -46 -42 -37 -31 -41 -36 -30 -35 -29 -28 0
-20 -31 -30 -29 -28 -24 -23 -22 -21 -46 -42 -37 -41 -36 -35 0
-28 -29 -30 -31 -20 -35 -36 -37 -21 -41 -42 -22 -46 -23 -24 0
-28 -21 -37 -36 -35 -20 -31 -30 -29 -24 -23 -22 -46 -42 -41 0
-35 -36 -37 -21 -28 -41 -42 -22 -29 -46 -23 -30 -24 -31 -20 0
-35 -29 -22 -42 -41 -28 -21 -37 -36 -20 -31 -30 -24 -23 -46 0
-41 -42 -22 -29 -35 -46 -23 -30 -36 -24 -31 -37 -20 -21 -28 0
-41 -36 -30 -23 -46 -35 -29 -22 -42 -28 -21 -37 -20 -31 -24 0
-46 -23 -30 -36 -41 -24 -31 -37 -42 -20 -21 -22 -28 -29 -35 0
-24 -31 -37 -42 -46 -20 -21 -22 -23 -28 -29 -30 -35 -36 -41 0
-46 -42 -37 -31 -24 -41 -36 -30 -23 -35 -29 -22 -28 -21 -20 0
-20 -21 -22 -23 -25 -28 -29 -30 -32 -35 -36 -38 -41 -43 -47 0
-25 -23 -22 -21 -20 -47 -43 -38 -32 -41 -36 -30 -35 -29 -28 0
-20 -32 -30 -29 -28 -25 -23 -22 -21 -47 -43 -38 -41 -36 -35 0
-28 -29 -30 -32 -20 -35 -36 -38 -21 -41 -43 -22 -47 -23 -25 0
-28 -21 -38 -36 -35 -20 -32 -30 -29 -25 -23 -22 -47 -43 -41 0
-35 -36 -38 -21 -28 -41 -43 -22 -29 -47 -23 -30 -25 -32 -20 0
-35 -29 -22 -43 -41 -28 -21 -38 -36 -20 -32 -30 -25 -23 -47 0
-41 -43 -22 -29 -35 -47 -23 -30 -36 -25 -32 -38 -20 -21 -28 0
-41 -36 -30 -23 -47 -35 -29 -22 -43 -28 -21 -38 -20 -32 -25 0
-47 -23 -30 -36 -41 -25 -32 -38 -43 -20 -21 -22 -28 -29 -35 0
-25 -32 -38 -43 -47 -20 -21 -22 -23 -28 -29 -30 -35 -36 -41 0
-47 -43 -38 -32 -25 -41 -36 -30 -23 -35 -29 -22 -28 -21 -20 0
-20 -21 -22 -23 -26 -28 -29 -30 -33 -35 -36 -39 -41 -44 -48 0
-26 -23 -22 -21 -20 -48 -44 -39 -33 -41 -36 -30 -35 -29 -28 0
-20 -33 -30 -29 -28 -26 -23 -22 -21 -48 -44 -39 -41 -36 -35 0
-28 -29 -30 -33 -20 -35 -36 -39 -21 -41 -44 -22 -48 -23 -26 0
-28 -21 -39 -36 -35 -20 -33 -30 -29 -26 -23 -22 -48 -44 -41 0
-35 -36 -39 -21 -28 -41 -44 -22 -29 -48 -23 -30 -26 -33 -20 0
-35 -29 -22 -44 -41 -28 -21 -39 -36 -20 -33 -30 -26 -23 -48 0
-41 -44 -22 -29 -35 -48 -23 -30 -36 -26 -33 -39 -20 -21 -28 0
-41 -36 -30 -23 -48 -35 -29 -22 -44 -28 -21 -39 -20 -33 -26 0
-48 -23 -30 -36 -41 -26 -33 -39 -44 -20 -21 -22 -28 -29 -35 0
-26 -33 -39 -44 -48 -20 -21 -22 -23 -28 -29 -30 -35 -36 -41 0
-48 -44 -39 -33 -26 -41 -36 -30 -23 -35 -29 -22 -28 -21 -20 0
-20 -21 -22 -23 -27 -28 -29 -30 -34 -35 -36 -40 -41 -45 -49 0
-27 -23 -22 -21 -20 -49 -45 -40 -34 -41 -36 -30 -35 -29 -28 0
-20 -34 -30 -29 -28 -27 -23 -22 -21 -49 -45 -40 -41 -36 -35 0
-28 -29 -30 -34 -20 -35 -36 -40 -21 -41 -45 -22 -49 -23 -27 0
-28 -21 -40 -36 -35 -20 -34 -30 -29 -27 -23 -22 -49 -45 -41 0
-35 -36 -40 -21 -28 -41 -45 -22 -29 -49 -23 -30 -27 -34 -20 0
-35 -29 -22 -45 -41 -28 -21 -40 -36 -20 -34 -30 -27 -23 -49 0
-41 -45 -22 -29 -35 -49 -23 -30 -36 -27 -34 -40 -20 -21 -28 0
-41 -36 -30 -23 -49 -35 -29 -22 -45 -28 -21 -40 -20 -34 -27 0
-49 -23 -30 -36 -41 -27 -34 -40 -45 -20 -21 -22 -28 -29 -35 0
-27 -34 -40 -45 -49 -20 -21 -22 -23 -28 -29 -30 -35 -36 -41 0
-49 -45 -40 -34 -27 -41 -36 -30 -23 -35 -29 -22 -28 -21 -20 0
-20 -21 -22 -24 -25 -28 -29 -31 -32 -35 -37 -38 -42 -43 -50 0
-25 -24 -22 -21 -20 -50 -43 -38 -32 -42 -37 -31 -35 -29 -28 0
-20 -32 -31 -29 -28 -25 -24 -22 -21 -50 -43 -38 -42 -37 -35 0
-28 -29 -31 -32 -20 -35 -37 -38 -21 -42 -43 -22 -50 -24 -25 0
-28 -21 -38 -37 -35 -20 -32 -31 -29 -25 -24 -22 -50 -43 -42 0
-35 -37 -38 -21 -28 -42 -43 -22 -29 -50 -24 -31 -25 -32 -20 0
-35 -29 -22 -43 -42 -28 -21 -38 -37 -20 -32 -31 -25 -24 -50 0
-42 -43 -22 -29 -35 -50 -24 -31 -37 -25 -32 -38 -20 -21 -28 0
-42 -37 -31 -24 -50 -35 -29 -22 -43 -28 -21 -38 -20 -32 -25 0
-50 -24 -31 -37 -42 -25 -32 -38 -43 -20 -21 -22 -28 -29 -35 0
-25 -32 -38 -43 -50 -20 -21 -22 -24 -28 -29 -31 -35 -37 -42 0
-50 -43 -38 -32 -25 -42 -37 -31 -24 -35 -29 -22 -28 -21 -20 0
-20 -21 -22 -24 -26 -28 -29 -31 -33 -35 -37 -39 -42 -44 -51 0
-26 -24 -22 -21 -20 -51 -44 -39 -33 -42 -37 -31 -35 -29 -28 0
-20 -33 -31 -29 -28 -26 -24 -22 -21 -51 -44 -39 -42 -37 -35 0
-28 -29 -31 -33 -20 -35 -37 -39 -21 -42 -44 -22 -51 -24 -26 0
-28 -21 -39 -37 -35 -20 -33 -31 -29 -26 -24 -22 -51 -44 -42 0
-35 -37 -39 -21 -28 -42 -44 -22 -29 -51 -24 -31 -26 -33 -20 0
-35 -29 -22 -44 -42 -28 -21 -39 -37 -20 -33 -31 -26 -24 -51 0
-42 -44 -22 -29 -35 -51 -24 -31 -37 -26 -33 -39 -20 -21 -28 0
-42 -37 -31 -24 -51 -35 -29 -22 -44 -28 -21 -39 -20 -33 -26 0
-51 -24 -31 -37 -42 -26 -33 -39 -44 -20 -21 -22 -28 -29 -35 0
-26 -33 -39 -44 -51 -20 -21 -22 -24 -28 -29 -31 -35 -37 -42 0
-51 -44 -39 -33 -26 -42 -37 -31 -24 -35 -29 -22 -28 -21 -20 0
-20 -21 -22 -24 -27 -28 -29 -31 -34 -35 -37 -40 -42 -45 -52 0
-27 -24 -22 -21 -20 -52 -45 -40 -34 -42 -37 -31 -35 -29 -28 0
-20 -34 -31 -29 -28 -27 -24 -22 -21 -52 -45 -40 -42 -37 -35 0
-28 -29 -31 -34 -20 -35 -37 -40 -21 -42 -45 -22 -52 -24 -27 0
-28 -21 -40 -37 -35 -20 -34 -31 -29 -27 -24 -22 -52 -45 -42 0
-35 -37 -40 -21 -28 -42 -45 -22 -29 -52 -24 -31 -27 -34 -20 0
-35 -29 -22 -45 -42 -28 -21 -40 -37 -20 -34 -31 -27 -24 -52 0
-42 -45 -22 -29 -35 -52 -24 -31 -37 -27 -34 -40 -20 -21 -28 0
-42 -37 -31 -24 -52 -35 -29 -22 -45 -28 -21 -40 -20 -34 -27 0
-52 -24 -31 -37 -42 -27 -34 -40 -45 -20 -21 -22 -28 -29 -35 0
-27 -34 -40 -45 -52 -20 -21 -22 -24 -28 -29 -31 -35 -37 -42 0
-52 -45 -40 -34 -27 -42 -37 -31 -24 -35 -29 -22 -28 -21 -20 0
-20 -21 -22 -25 -26 -28 -29 -32 -33 -35 -38 -39 -43 -44 -53 0
-26 -25 -22 -21 -20 -53 -44 -39 -33 -43 -38 -32 -35 -29 -28 0
-20 -33 -32 -29 -28 -26 -25 -22 -21 -53 -44 -39 -43 -38 -35 0
-28 -29 -32 -33 -20 -35 -38 -39 -21 -43 -44 -22 -53 -25 -26 0
-28 -21 -39 -38 -35 -20 -33 -32 -29 -26 -25 -22 -53 -44 -43 0
-35 -38 -39 -21 -28 -43 -44 -22 -29 -53 -25 -32 -26 -33 -20 0
-35 -29 -22 -44 -43 -28 -21 -39 -38 -20 -33 -32 -26 -25 -53 0
-43 -44 -22 -29 -35 -53 -25 -32 -38 -26 -33 -39 -20 -21 -28 0
-43 -38 -32 -25 -53 -35 -29 -22 -44 -28 -21 -39 -20 -33 -26 0
-53 -25 -32 -38 -43 -26 -33 -39 -44 -20 -21 -22 -28 -29 -35 0
-26 -33 -39 -44 -53 -20 -21 -22 -25 -28 -29 -32 -35 -38 -43 0
-53 -44 -39 -33 -26 -43 -38 -32 -25 -35 -29 -22 -28 -21 -20 0
-20 -21 -22 -25 -27 -28 -29 -32 -34 -35 -38 -40 -43 -45 -54 0
-27 -25 -22 -21 -20 -54 -45 -40 -34 -43 -38 -32 -35 -29 -28 0
-20 -34 -32 -29 -28 -27 -25 -22 -21 -54 -45 -40 -43 -38 -35 0
-28 -29 -32 -34 -20 -35 -38 -40 -21 -43 -45 -22 -54 -25 -27 0
-28 -21 -40 -38 -35 -20 -34 -32 -29 -27 -25 -22 -54 -45 -43 0
-35 -38 -40 -21 -28 -43 -45 -22 -29 -54 -25 -32 -27 -34 -20 0
-35 -29 -22 -45 -43 -28 -21 -40 -38 -20 -34 -32 -27 -25 -54 0
-43 -45 -22 -29 -35 -54 -25 -32 -38 -27 -34 -40 -20 -21 -28 0
-43 -38 -32 -25 -54 -35 -29 -22 -45 -28 -21 -40 -20 -34 -27 0
-54 -25 -32 -38 -43 -27 -34 -40 -45 -20 -21 -22 -28 -29 -35 0
-27 -34 -40 -45 -54 -20 -21 -22 -25 -28 -29 -32 -35 -38 -43 0
-54 -45 -40 -34 -27 -43 -38 -32 -25 -35 -29 -22 -28 -21 -20 0
-20 -21 -22 -26 -27 -28 -29 -33 -34 -35 -39 -40 -44 -45 -55 0
-27 -26 -22 -21 -20 -55 -45 -40 -34 -44 -39 -33 -35 -29 -28 0
-20 -34 -33 -29 -28 -27 -26 -22 -21 -55 -45 -40 -44 -39 -35 0
-28 -29 -33 -34 -20 -35 -39 -40 -21 -44 -45 -22 -55 -26 -27 0
-28 -21 -40 -39 -35 -20 -34 -33 -29 -27 -26 -22 -55 -45 -44 0
-35 -39 -40 -21 -28 -44 -45 -22 -29 -55 -26 -33 -27 -34 -20 0
-35 -29 -22 -45 -44 -28 -21 -40 -39 -20 -34 -33 -27 -26 -55 0
-44 -45 -22 -29 -35 -55 -26 -33 -39 -27 -34 -40 -20 -21 -28 0
-44 -39 -33 -26 -55 -35 -29 -22 -45 -28 -21 -40 -20 -34 -27 0
-55 -26 -33 -39 -44 -27 -34 -40 -45 -20 -21 -22 -28 -29 -35 0
-27 -34 -40 -45 -55 -20 -21 -22 -26 -28 -29 -33 -35 -39 -44 0
-55 -45 -40 -34 -27 -44 -39 -33 -26 -35 -29 -22 -28 -21 -20 0
-20 -21 -23 -24 -25 -28 -30 -31 -32 -36 -37 -38 -46 -47 -50 0
-25 -24 -23 -21 -20 -50 -47 -38 -32 -46 -37 -31 -36 -30 -28 0
-20 -32 -31 -30 -28 -25 -24 -23 -21 -50 -47 -38 -46 -37 -36 0
-28 -30 -31 -32 -20 -36 -37 -38 -21 -46 -47 -23 -50 -24 -25 0
-28 -21 -38 -37 -36 -20 -32 -31 -30 -25 -24 -23 -50 -47 -46 0
-36 -37 -38 -21 -28 -46 -47 -23 -30 -50 -24 -31 -25 -32 -20 0
-36 -30 -23 -47 -46 -28 -21 -38 -37 -20 -32 -31 -25 -24 -50 0
-46 -47 -23 -30 -36 -50 -24 -31 -37 -25 -32 -38 -20 -21 -28 0
-46 -37 -31 -24 -50 -36 -30 -23 -47 -28 -21 -38 -20 -32 -25 0
-50 -24 -31 -37 -46 -25 -32 -38 -47 -20 -21 -23 -28 -30 -36 0
-25 -32 -38 -47 -50 -20 -21 -23 -24 -28 -30 -31 -36 -37 -46 0
-50 -47 -38 -32 -25 -46 -37 -31 -24 -36 -30 -23 -28 -21 -20 0
-20 -21 -23 -24 -26 -28 -30 -31 -33 -36 -37 -39 -46 -48 -51 0
-26 -24 -23 -21 -20 -51 -48 -39 -33 -46 -37 -31 -36 -30 -28 0
-20 -33 -31 -30 -28 -26 -24 -23 -21 -51 -48 -39 -46 -37 -36 0
-28 -30 -31 -33 -20 -36 -37 -39 -21 -46 -48 -23 -51 -24 -26 0
-28 -21 -39 -37 -36 -20 -33 -31 -30 -26 -24 -23 -51 -48 -46 0
-36 -37 -39 -21 -28 -46 -48 -23 -30 -51 -24 -31 -26 -33 -20 0
-36 -30 -23 -48 -46 -28 -21 -39 -37 -20 -33 -31 -26 -24 -51 0
-46 -48 -23 -30 -36 -51 -24 -31 -37 -26 -33 -39 -20 -21 -28 0
-46 -37 -31 -24 -51 -36 -30 -23 -48 -28 -21 -39 -20 -33 -26 0
-51 -24 -31 -37 -46 -26 -33 -39 -48 -20 -21 -23 -28 -30 -36 0
-26 -33 -39 -48 -51 -20 -21 -23 -24 -28 -30 -31 -36 -37 -46 0
-51 -48 -39 -33 -26 -46 -37 -31 -24 -36 -30 -23 -28 -21 -20 0
-20 -21 -23 -24 -27 -28 -30 -31 -34 -36 -37 -40 -46 -49 -52 0
-27 -24 -23 -21 -20 -52 -49 -40 -34 -46 -37 -31 -36 -30 -28 0
-20 -34 -31 -30 -28 -27 -24 -23 -21 -52 -49 -40 -46 -37 -36 0
-28 -30 -31 -34 -20 -36 -37 -40 -21 -46 -49 -23 -52 -24 -27 0
-28 -21 -40 -37 -36 -20 -34 -31 -30 -27 -24 -23 -52 -49 -46 0
-36 -37 -40 -21 -28 -46 -49 -23 -30 -52 -24 -31 -27 -34 -20 0
-36 -30 -23 -49 -46 -28 -21 -40 -37 -20 -34 -31 -27 -24 -52 0
-46 -49 -23 -30 -36 -52 -24 -31 -37 -27 -34 -40 -20 -21 -28 0
-46 -37 -31 -24 -52 -36 -30 -23 -49 -28 -21 -40 -20 -34 -27 0
-52 -24 -31 -37 -46 -27 -34 -40 -49 -20 -21 -23 -28 -30 -36 0
-27 -34 -40 -49 -52 -20 -21 -23 -24 -28 -30 -31 -36 -37 -46 0
-52 -49 -40 -34 -27 -46 -37 -31 -24 -36 -30 -23 -28 -21 -20 0
-20 -21 -23 -25 -26 -28 -30 -32 -33 -36 -38 -39 -47 -48 -53 0
-26 -25 -23 -21 -20 -53 -48 -39 -33 -47 -38 -32 -36 -30 -28 0
-20 -33 -32 -30 -28 -26 -25 -23 -21 -53 -48 -39 -47 -38 -36 0
-28 -30 -32 -33 -20 -36 -38 -39 -21 -47 -48 -23 -53 -25 -26 0
-28 -21 -39 -38 -36 -20 -33 -32 -30 -26 -25 -23 -53 -48 -47 0
-36 -38 -39 -21 -28 -47 -48 -23 -30 -53 -25 -32 -26 -33 -20 0
-36 -30 -23 -48 -47 -28 -21 -39 -38 -20 -33 -32 -26 -25 -53 0
-47 -48 -23 -30 -36 -53 -25 -32 -38 -26 -33 -39 -20 -21 -28 0
-47 -38 -32 -25 -53 -36 -30 -23 -48 -28 -21 -39 -20 -33 -26 0
-53 -25 -32 -38 -47 -26 -33 -39 -48 -20 -21 -23 -28 -30 -36 0
-26 -33 -39 -48 -53 -20 -21 -23 -25 -28 -30 -32 -36 -38 -47 0
-53 -48 -39 -33 -26 -47 -38 -32 -25 -36 -30 -23 -28 -21 -20 0
-20 -21 -23 -25 -27 -28 -30 -32 -34 -36 -38 -40 -47 -49 -54 0
-27 -25 -23 -21 -20 -54 -49 -40 -34 -47 -38 -32 -36 -30 -28 0
-20 -34 -32 -30 -28 -27 -25 -23 -21 -54 -49 -40 -47 -38 -36 0
-28 -30 -32 -34 -20 -36 -38 -40 -21 -47 -49 -23 -54 -25 -27 0
-28 -21 -40 -38 -36 -20 -34 -32 -30 -27 -25 -23 -54 -49 -47 0
-36 -38 -40 -21 -28 -47 -49 -23 -30 -54 -25 -32 -27 -34 -20 0
-36 -30 -23 -49 -47 -28 -21 -40 -38 -20 -34 -32 -27 -25 -54 0
-47 -49 -23 -30 -36 -54 -25 -32 -38 -27 -34 -40 -20 -21 -28 0
-47 -38 -32 -25 -54 -36 -30 -23 -49 -28 -21 -40 -20 -34 -27 0
-54 -25 -32 -38 -47 -27 -34 -40 -49 -20 -21 -23 -28 -30 -36 0
-27 -34 -40 -49 -54 -20 -21 -23 -25 -28 -30 -32 -36 -38 -47 0
-54 -49 -40 -34 -27 -47 -38 -32 -25 -36 -30 -23 -28 -21 -20 0
-20 -21 -23 -26 -27 -28 -30 -33 -34 -36 -39 -40 -48 -49 -55 0
-27 -26 -23 -21 -20 -55 -49 -40 -34 -48 -39 -33 -36 -30 -28 0
-20 -34 -33 -30 -28 -27 -26 -23 -21 -55 -49 -40 -48 -39 -36 0
-28 -30 -33 -34 -20 -36 -39 -40 -21 -48 -49 -23 -55 -26 -27 0
-28 -21 -40 -39 -36 -20 -34 -33 -30 -27 -26 -23 -55 -49 -48 0
-36 -39 -40 -21 -28 -48 -49 -23 -30 -55 -26 -33 -27 -34 -20 0
-36 -30 -23 -49 -48 -28 -21 -40 -39 -20 -34 -33 -27 -26 -55 0
-48 -49 -23 -30 -36 -55 -26 -33 -39 -27 -34 -40 -20 -21 -28 0
-48 -39 -33 -26 -55 -36 -30 -23 -49 -28 -21 -40 -20 -34 -27 0
-55 -26 -33 -39 -48 -27 -34 -40 -49 -20 -21 -23 -28 -30 -36 0
-27 -34 -40 -49 -55 -20 -21 -23 -26 -28 -30 -33 -36 -39 -48 0
-55 -49 -40 -34 -27 -48 -39 -33 -26 -36 -30 -23 -28 -21 -20 0
-20 -21 -24 -25 -26 -28 -31 -32 -33 -37 -38 -39 -50 -51 -53 0
-26 -25 -24 -21 -20 -53 -51 -39 -33 -50 -38 -32 -37 -31 -28 0
-20 -33 -32 -31 -28 -26 -25 -24 -21 -53 -51 -39 -50 -38 -37 0
-28 -31 -32 -33 -20 -37 -38 -39 -21 -50 -51 -24 -53 -25 -26 0
-28 -21 -39 -38 -37 -20 -33 -32 -31 -26 -25 -24 -53 -51 -50 0
-37 -38 -39 -21 -28 -50 -51 -24 -31 -53 -25 -32 -26 -33 -20 0
-37 -31 -24 -51 -50 -28 -21 -39 -38 -20 -33 -32 -26 -25 -53 0
-50 -51 -24 -31 -37 -53 -25 -32 -38 -26 -33 -39 -20 -21 -28 0
-50 -38 -32 -25 -53 -37 -31 -24 -51 -28 -21 -39 -20 -33 -26 0
-53 -25 -32 -38 -50 -26 -33 -39 -51 -20 -21 -24 -28 -31 -37 0
-26 -33 -39 -51 -53 -20 -21 -24 -25 -28 -31 -32 -37 -38 -50 0
-53 -51 -39 -33 -26 -50 -38 -32 -25 -37 -31 -24 -28 -21 -20 0
-20 -21 -24 -25 -27 -28 -31 -32 -34 -37 -38 -40 -50 -52 -54 0
-27 -25 -24 -21 -20 -54 -52 -40 -34 -50 -38 -32 -37 -31 -28 0
-20 -34 -32 -31 -28 -27 -25 -24 -21 -54 -52 -40 -50 -38 -37 0
-28 -31 -32 -34 -20 -37 -38 -40 -21 -50 -52 -24 -54 -25 -27 0
-28 -21 -40 -38 -37 -20 -34 -32 -31 -27 -25 -24 -54 -52 -50 0
-37 -38 -40 -21 -28 -50 -52 -24 -31 -54 -25 -32 -27 -34 -20 0
-37 -31 -24 -52 -50 -28 -21 -40 -38 -20 -34 -32 -27 -25 -54 0
-50 -52 -24 -31 -37 -54 -25 -32 -38 -27 -34 -40 -20 -21 -28 0
-50 -38 -32 -25 -54 -37 -31 -24 -52 -28 -21 -40 -20 -34 -27 0
-54 -25 -32 -38 -50 -27 -34 -40 -52 -20 -21 -24 -28 -31 -37 0
-27 -34 -40 -52 -54 -20 -21 -24 -25 -28 -31 -32 -37 -38 -50 0
-54 -52 -40 -34 -27 -50 -38 -32 -25 -37 -31 -24 -28 -21 -20 0
-20 -21 -24 -26 -27 -28 -31 -33 -34 -37 -39 -40 -51 -52 -55 0
-27 -26 -24 -21 -20 -55 -52 -40 -34 -51 -39 -33 -37 -31 -28 0
-20 -34 -33 -31 -28 -27 -26 -24 -21 -55 -52 -40 -51 -39 -37 0
-28 -31 -33 -34 -20 -37 -39 -40 -21 -51 -52 -24 -55 -26 -27 0
-28 -21 -40 -39 -37 -20 -34 -33 -31 -27 -26 -24 -55 -52 -51 0
-37 -39 -40 -21 -28 -51 -52 -24 -31 -55 -26 -33 -27 -34 -20 0
-37 -31 -24 -52 -51 -28 -21 -40 -39 -20 -34 -33 -27 -26 -55 0
-51 -52 -24 -31 -37 -55 -26 -33 -39 -27 -34 -40 -20 -21 -28 0
-51 -39 -33 -26 -55 -37 -31 -24 -52 -28 -21 -40 -20 -34 -27 0
-55 -26 -33 -39 -51 -27 -34 -40 -52 -20 -21 -24 -28 -31 -37 0
-27 -34 -40 -52 -55 -20 -21 -24 -26 -28 -31 -33 -37 -39 -51 0
-55 -52 -40 -34 -27 -51 -39 -33 -26 -37 -31 -24 -28 -21 -20 0
-20 -21 -25 -26 -27 -28 -32 -33 -34 -38 -39 -40 -53 -54 -55 0
-27 -26 -25 -21 -20 -55 -54 -40 -34 -53 -39 -33 -38 -32 -28 0
-20 -34 -33 -32 -28 -27 -26 -25 -21 -55 -54 -40 -53 -39 -38 0
-28 -32 -33 -34 -20 -38 -39 -40 -21 -53 -54 -25 -55 -26 -27 0
-28 -21 -40 -39 -38 -20 -34 -33 -32 -27 -26 -25 -55 -54 -53 0
-38 -39 -40 -21 -28 -53 -54 -25 -32 -55 -26 -33 -27 -34 -20 0
-38 -32 -25 -54 -53 -28 -21 -40 -39 -20 -34 -33 -27 -26 -55 0
-53 -54 -25 -32 -38 -55 -26 -33 -39 -27 -34 -40 -20 -21 -28 0
-53 -39 -33 -26 -55 -38 -32 -25 -54 -28 -21 -40 -20 -34 -27 0
-55 -26 -33 -39 -53 -27 -34 -40 -54 -20 -21 -25 -28 -32 -38 0
-27 -34 -40 -54 -55 -20 -21 -25 -26 -28 -32 -33 -38 -39 -53 0
-55 -54 -40 -34 -27 -53 -39 -33 -26 -38 -32 -25 -28 -21 -20 0
-20 -22 -23 -24 -25 -29 -30 -31 -32 -41 -42 -43 -46 -47 -50 0
-25 -24 -23 -22 -20 -50 -47 -43 -32 -46 -42 -31 -41 -30 -29 0
-20 -32 -31 -30 -29 -25 -24 -23 -22 -50 -47 -43 -46 -42 -41 0
-29 -30 -31 -32 -20 -41 -42 -43 -22 -46 -47 -23 -50 -24 -25 0
-29 -22 -43 -42 -41 -20 -32 -31 -30 -25 -24 -23 -50 -47 -46 0
-41 -42 -43 -22 -29 -46 -47 -23 -30 -50 -24 -31 -25 -32 -20 0
-41 -30 -23 -47 -46 -29 -22 -43 -42 -20 -32 -31 -25 -24 -50 0
-46 -47 -23 -30 -41 -50 -24 -31 -42 -25 -32 -43 -20 -22 -29 0
-46 -42 -31 -24 -50 -41 -30 -23 -47 -29 -22 -43 -20 -32 -25 0
-50 -24 -31 -42 -46 -25 -32 -43 -47 -20 -22 -23 -29 -30 -41 0
-25 -32 -43 -47 -50 -20 -22 -23 -24 -29 -30 -31 -41 -42 -46 0
-50 -47 -43 -32 -25 -46 -42 -31 -24 -41 -30 -23 -29 -22 -20 0
-20 -22 -23 -24 -26 -29 -30 -31 -33 -41 -42 -44 -46 -48 -51 0
-26 -24 -23 -22 -20 -51 -48 -44 -33 -46 -42 -31 -41 -30 -29 0
-20 -33 -31 -30 -29 -26 -24 -23 -22 -51 -48 -44 -46 -42 -41 0
-29 -30 -31 -33 -20 -41 -42 -44 -22 -46 -48 -23 -51 -24 -26 0
-29 -22 -44 -42 -41 -20 -33 -31 -30 -26 -24 -23 -51 -48 -46 0
-41 -42 -44 -22 -29 -46 -48 -23 -30 -51 -24 -31 -26 -33 -20 0
-41 -30 -23 -48 -46 -29 -22 -44 -42 -20 -33 -31 -26 -24 -51 0
-46 -48 -23 -30 -41 -51 -24 -31 -42 -26 -33 -44 -20 -22 -29 0
-46 -42 -31 -24 -51 -41 -30 -23 -48 -29 -22 -44 -20 -33 -26 0
-51 -24 -31 -42 -46 -26 -33 -44 -48 -20 -22 -23 -29 -30 -41 0
-26 -33 -44 -48 -51 -20 -22 -23 -24 -29 -30 -31 -41 -42 -46 0
-51 -48 -44 -33 -26 -46 -42 -31 -24 -41 -30 -23 -29 -22 -20 0
-20 -22 -23 -24 -27 -29 -30 -31 -34 -41 -42 -45 -46 -49 -52 0
-27 -24 -23 -22 -20 -52 -49 -45 -34 -46 -42 -31 -41 -30 -29 0
-20 -34 -31 -30 -29 -27 -24 -23 -22 -52 -49 -45 -46 -42 -41 0
-29 -30 -31 -34 -20 -41 -42 -45 -22 -46 -49 -23 -52 -24 -27 0
-29 -22 -45 -42 -41 -20 -34 -31 -30 -27 -24 -23 -52 -49 -46 0
-41 -42 -45 -22 -29 -46 -49 -23 -30 -52 -24 -31 -27 -34 -20 0
-41 -30 -23 -49 -46 -29 -22 -45 -42 -20 -34 -31 -27 -24 -52 0
-46 -49 -23 -30 -41 -52 -24 -31 -42 -27 -34 -45 -20 -22 -29 0
-46 -42 -31 -24 -52 -41 -30 -23 -49 -29 -22 -45 -20 -34 -27 0
-52 -24 -31 -42 -46 -27 -34 -45 -49 -20 -22 -23 -29 -30 -41 0
-27 -34 -45 -49 -52 -20 -22 -23 -24 -29 -30 -31 -41 -42 -46 0
-52 -49 -45 -34 -27 -46 -42 -31 -24 -41 -30 -23 -29 -22 -20 0
-20 -22 -23 -25 -26 -29 -30 -32 -33 -41 -43 -44 -47 -48 -53 0
-26 -25 -23 -22 -20 -53 -48 -44 -33 -47 -43 -32 -41 -30 -29 0
-20 -33 -32 -30 -29 -26 -25 -23 -22 -53 -48 -44 -47 -43 -41 0
-29 -30 -32 -33 -20 -41 -43 -44 -22 -47 -48 -23 -53 -25 -26 0
-29 -22 -44 -43 -41 -20 -33 -32 -30 -26 -25 -23 -53 -48 -47 0
-41 -43 -44 -22 -29 -47 -48 -23 -30 -53 -25 -32 -26 -33 -20 0
-41 -30 -23 -48 -47 -29 -22 -44 -43 -20 -33 -32 -26 -25 -53 0
-47 -48 -23 -30 -41 -53 -25 -32 -43 -26 -33 -44 -20 -22 -29 0
-47 -43 -32 -25 -53 -41 -30 -23 -48 -29 -22 -44 -20 -33 -26 0
-53 -25 -32 -43 -47 -26 -33 -44 -48 -20 -22 -23 -29 -30 -41 0
-26 -33 -44 -48 -53 -20 -22 -23 -25 -29 -30 -32 -41 -43 -47 0
-53 -48 -44 -33 -26 -47 -43 -32 -25 -41 -30 -23 -29 -22 -20 0
-20 -22 -23 -25 -27 -29 -30 -32 -34 -41 -43 -45 -47 -49 -54 0
-27 -25 -23 -22 -20 -54 -49 -45 -34 -47 -43 -32 -41 -30 -29 0
-20 -34 -32 -30 -29 -27 -25 -23 -22 -54 -49 -45 -47 -43 -41 0
-29 -30 -32 -34 -20 -41 -43 -45 -22 -47 -49 -23 -54 -25 -27 0
-29 -22 -45 -43 -41 -20 -34 -32 -30 -27 -25 -23 -54 -49 -47 0
-41 -43 -45 -22 -29 -47 -49 -23 -30 -54 -25 -32 -27 -34 -20 0
-41 -30 -23 -49 -47 -29 -22 -45 -43 -20 -34 -32 -27 -25 -54 0
-47 -49 -23 -30 -41 -54 -25 -32 -43 -27 -34 -45 -20 -22 -29 0
-47 -43 -32 -25 -54 -41 -30 -23 -49 -29 -22 -45 -20 -34 -27 0
-54 -25 -32 -43 -47 -27 -34 -45 -49 -20 -22 -23 -29 -30 -41 0
-27 -34 -45 -49 -54 -20 -22 -23 -25 -29 -30 -32 -41 -43 -47 0
-54 -49 -45 -34 -27 -47 -43 -32 -25 -41 -30 -23 -29 -22 -20 0
-20 -22 -23 -26 -27 -29 -30 -33 -34 -41 -44 -45 -48 -49 -55 0
-27 -26 -23 -22 -20 -55 -49 -45 -34 -48 -44 -33 -41 -30 -29 0
-20 -34 -33 -30 -29 -27 -26 -23 -22 -55 -49 -45 -48 -44 -41 0
-29 -30 -33 -34 -20 -41 -44 -45 -22 -48 -49 -23 -55 -26 -27 0
-29 -22 -45 -44 -41 -20 -34 -33 -30 -27 -26 -23 -55 -49 -48 0
-41 -44 -45 -22 -29 -48 -49 -23 -30 -55 -26 -33 -27 -34 -20 0
-41 -30 -23 -49 -48 -29 -22 -45 -44 -20 -34 -33 -27 -26 -55 0
-48 -49 -23 -30 -41 -55 -26 -33 -44 -27 -34 -45 -20 -22 -29 0
-48 -44 -33 -26 -55 -41 -30 -23 -49 -29 -22 -45 -20 -34 -27 0
-55 -26 -33 -44 -48 -27 -34 -45 -49 -20 -22 -23 -29 -30 -41 0
-27 -34 -45 -49 -55 -20 -22 -23 -26 -29 -30 -33 -41 -44 -48 0
-55 -49 -45 -34 -27 -48 -44 -33 -26 -41 -30 -23 -29 -22 -20 0
-20 -22 -24 -25 -26 -29 -31 -32 -33 -42 -43 -44 -50 -51 -53 0
-26 -25 -24 -22 -20 -53 -51 -44 -33 -50 -43 -32 -42 -31 -29 0
-20 -33 -32 -31 -29 -26 -25 -24 -22 -53 -51 -44 -50 -43 -42 0
-29 -31 -32 -33 -20 -42 -43 -44 -22 -50 -51 -24 -53 -25 -26 0
-29 -22 -44 -43 -42 -20 -33 -32 -31 -26 -25 -24 -53 -51 -50 0
-42 -43 -44 -22 -29 -50 -51 -24 -31 -53 -25 -32 -26 -33 -20 0
-42 -31 -24 -51 -50 -29 -22 -44 -43 -20 -33 -32 -26 -25 -53 0
-50 -51 -24 -31 -42 -53 -25 -32 -43 -26 -33 -44 -20 -22 -29 0
-50 -43 -32 -25 -53 -42 -31 -24 -51 -29 -22 -44 -20 -33 -26 0
-53 -25 -32 -43 -50 -26 -33 -44 -51 -20 -22 -24 -29 -31 -42 0
-26 -33 -44 -51 -53 -20 -22 -24 -25 -29 -31 -32 -42 -43 -50 0
-53 -51 -44 -33 -26 -50 -43 -32 -25 -42 -31 -24 -29 -22 -20 0
-20 -22 -24 -25 -27 -29 -31 -32 -34 -42 -43 -45 -50 -52 -54 0
-27 -25 -24 -22 -20 -54 -52 -45 -34 -50 -43 -32 -42 -31 -29 0
-20 -34 -32 -31 -29 -27 -25 -24 -22 -54 -52 -45 -50 -43 -42 0
-29 -31 -32 -34 -20 -42 -43 -45 -22 -50 -52 -24 -54 -25 -27 0
-29 -22 -45 -43 -42 -20 -34 -32 -31 -27 -25 -24 -54 -52 -50 0
-42 -43 -45 -22 -29 -50 -52 -24 -31 -54 -25 -32 -27 -34 -20 0
-42 -31 -24 -52 -50 -29 -22 -45 -43 -20 -34 -32 -27 -25 -54 0
-50 -52 -24 -31 -42 -54 -25 -32 -43 -27 -34 -45 -20 -22 -29 0
-50 -43 -32 -25 -54 -42 -31 -24 -52 -29 -22 -45 -20 -34 -27 0
-54 -25 -32 -43 -50 -27 -34 -45 -52 -20 -22 -24 -29 -31 -42 0
-27 -34 -45 -52 -54 -20 -22 -24 -25 -29 -31 -32 -42 -43 -50 0
-54 -52 -45 -34 -27 -50 -43 -32 -25 -42 -31 -24 -29 -22 -20 0
-20 -22 -24 -26 -27 -29 -31 -33 -34 -42 -44 -45 -51 -52 -55 0
-27 -26 -24 -22 -20 -55 -52 -45 -34 -51 -44 -33 -42 -31 -29 0
-20 -34 -33 -31 -29 -27 -26 -24 -22 -55 -52 -45 -51 -44 -42 0
-29 -31 -33 -34 -20 -42 -44 -45 -22 -51 -52 -24 -55 -26 -27 0
-29 -22 -45 -44 -42 -20 -34 -33 -31 -27 -26 -24 -55 -52 -51 0
-42 -44 -45 -22 -29 -51 -52 -24 -31 -55 -26 -33 -27 -34 -20 0
-42 -31 -24 -52 -51 -29 -22 -45 -44 -20 -34 -33 -27 -26 -55 0
-51 -52 -24 -31 -42 -55 -26 -33 -44 -27 -34 -45 -20 -22 -29 0
-51 -44 -33 -26 -55 -42 -31 -24 -52 -29 -22 -45 -20 -34 -27 0
-55 -26 -33 -44 -51 -27 -34 -45 -52 -20 -22 -24 -29 -31 -42 0
-27 -34 -45 -52 -55 -20 -22 -24 -26 -29 -31 -33 -42 -44 -51 0
-55 -52 -45 -34 -27 -51 -44 -33 -26 -42 -31 -24 -29 -22 -20 0
-20 -22 -25 -26 -27 -29 -32 -33 -34 -43 -44 -45 -53 -54 -55 0
-27 -26 -25 -22 -20 -55 -54 -45 -34 -53 -44 -33 -43 -32 -29 0
-20 -34 -33 -32 -29 -27 -26 -25 -22 -55 -54 -45 -53 -44 -43 0
-29 -32 -33 -34 -20 -43 -44 -45 -22 -53 -54 -25 -55 -26 -27 0
-29 -22 -45 -44 -43 -20 -34 -33 -32 -27 -26 -25 -55 -54 -53 0
-43 -44 -45 -22 -29 -53 -54 -25 -32 -55 -26 -33 -27 -34 -20 0
-43 -32 -25 -54 -53 -29 -22 -45 -44 -20 -34 -33 -27 -26 -55 0
-53 -54 -25 -32 -43 -55 -26 -33 -44 -27 -34 -45 -20 -22 -29 0
-53 -44 -33 -26 -55 -43 -32 -25 -54 -29 -22 -45 -20 -34 -27 0
-55 -26 -33 -44 -53 -27 -34 -45 -54 -20 -22 -25 -29 -32 -43 0
-27 -34 -45 -54 -55 -20 -22 -25 -26 -29 -32 -33 -43 -44 -53 0
-55 -54 -45 -34 -27 -53 -44 -33 -26 -43 -32 -25 -29 -22 -20 0
-20 -23 -24 -25 -26 -30 -31 -32 -33 -46 -47 -48 -50 -51 -53 0
-26 -25 -24 -23 -20 -53 -51 -48 -33 -50 -47 -32 -46 -31 -30 0
-20 -33 -32 -31 -30 -26 -25 -24 -23 -53 -51 -48 -50 -47 -46 0
-30 -31 -32 -33 -20 -46 -47 -48 -23 -50 -51 -24 -53 -25 -26 0
-30 -23 -48 -47 -46 -20 -33 -32 -31 -26 -25 -24 -53 -51 -50 0
-46 -47 -48 -23 -30 -50 -51 -24 -31 -53 -25 -32 -26 -33 -20 0
-46 -31 -24 -51 -50 -30 -23 -48 -47 -20 -33 -32 -26 -25 -53 0
-50 -51 -24 -31 -46 -53 -25 -32 -47 -26 -33 -48 -20 -23 -30 0
-50 -47 -32 -25 -53 -46 -31 -24 -51 -30 -23 -48 -20 -33 -26 0
-53 -25 -32 -47 -50 -26 -33 -48 -51 -20 -23 -24 -30 -31 -46 0
-26 -33 -48 -51 -53 -20 -23 -24 -25 -30 -31 -32 -46 -47 -50 0
-53 -51 -48 -33 -26 -50 -47 -32 -25 -46 -31 -24 -30 -23 -20 0
-20 -23 -24 -25 -27 -30 -31 -32 -34 -46 -47 -49 -50 -52 -54 0
-27 -25 -24 -23 -20 -54 -52 -49 -34 -50 -47 -32 -46 -31 -30 0
-20 -34 -32 -31 -30 -27 -25 -24 -23 -54 -52 -49 -50 -47 -46 0
-30 -31 -32 -34 -20 -46 -47 -49 -23 -50 -52 -24 -54 -25 -27 0
-30 -23 -49 -47 -46 -20 -34 -32 -31 -27 -25 -24 -54 -52 -50 0
-46 -47 -49 -23 -30 -50 -52 -24 -31 -54 -25 -32 -27 -34 -20 0
-46 -31 -24 -52 -50 -30 -23 -49 -47 -20 -34 -32 -27 -25 -54 0
-50 -52 -24 -31 -46 -54 -25 -32 -47 -27 -34 -49 -20 -23 -30 0
-50 -47 -32 -25 -54 -46 -31 -24 -52 -30 -23 -49 -20 -34 -27 0
-54 -25 -32 -47 -50 -27 -34 -49 -52 -20 -23 -24 -30 -31 -46 0
-27 -34 -49 -52 -54 -20 -23 -24 -25 -30 -31 -32 -46 -47 -50 0
-54 -52 -49 -34 -27 -50 -47 -32 -25 -46 -31 -24 -30 -23 -20 0
-20 -23 -24 -26 -27 -30 -31 -33 -34 -46 -48 -49 -51 -52 -55 0
-27 -26 -24 -23 -20 -55 -52 -49 -34 -51 -48 -33 -46 -31 -30 0
-20 -34 -33 -31 -30 -27 -26 -24 -23 -55 -52 -49 -51 -48 -46 0
-30 -31 -33 -34 -20 -46 -48 -49 -23 -51 -52 -24 -55 -26 -27 0
-30 -23 -49 -48 -46 -20 -34 -33 -31 -27 -26 -24 -55 -52 -51 0
-46 -48 -49 -23 -30 -51 -52 -24 -31 -55 -26 -33 -27 -34 -20 0
-46 -31 -24 -52 -51 -30 -23 -49 -48 -20 -34 -33 -27 -26 -55 0
-51 -52 -24 -31 -46 -55 -26 -33 -48 -27 -34 -49 -20 -23 -30 0
-51 -48 -33 -26 -55 -46 -31 -24 -52 -30 -23 -49 -20 -34 -27 0
-55 -26 -33 -48 -51 -27 -34 -49 -52 -20 -23 -24 -30 -31 -46 0
-27 -34 -49 -52 -55 -20 -23 -24 -26 -30 -31 -33 -46 -48 -51 0
-55 -52 -49 -34 -27 -51 -48 -33 -26 -46 -31 -24 -30 -23 -20 0
-20 -23 -25 -26 -27 -30 -32 -33 -34 -47 -48 -49 -53 -54 -55 0
-27 -26 -25 -23 -20 -55 -54 -49 -34 -53 -48 -33 -47 -32 -30 0
-20 -34 -33 -32 -30 -27 -26 -25 -23 -55 -54 -49 -53 -48 -47 0
-30 -32 -33 -34 -20 -47 -48 -49 -23 -53 -54 -25 -55 -26 -27 0
-30 -23 -49 -48 -47 -20 -34 -33 -32 -27 -26 -25 -55 -54 -53 0
-47 -48 -49 -23 -30 -53 -54 -25 -32 -55 -26 -33 -27 -34 -20 0
-47 -32 -25 -54 -53 -30 -23 -49 -48 -20 -34 -33 -27 -26 -55 0
-53 -54 -25 -32 -47 -55 -26 -33 -48 -27 -34 -49 -20 -23 -30 0
-53 -48 -33 -26 -55 -47 -32 -25 -54 -30 -23 -49 -20 -34 -27 0
-55 -26 -33 -48 -53 -27 -34 -49 -54 -20 -23 -25 -30 -32 -47 0
-27 -34 -49 -54 -55 -20 -23 -25 -26 -30 -32 -33 -47 -48 -53 0
-55 -54 -49 -34 -27 -53 -48 -33 -26 -47 -32 -25 -30 -23 -20 0
-20 -24 -25 -26 -27 -31 -32 -33 -34 -50 -51 -52 -53 -54 -55 0
-27 -26 -25 -24 -20 -55 -54 -52 -34 -53 -51 -33 -50 -32 -31 0
-20 -34 -33 -32 -31 -27 -26 -25 -24 -55 -54 -52 -53 -51 -50 0
-31 -32 -33 -34 -20 -50 -51 -52 -24 -53 -54 -25 -55 -26 -27 0
-31 -24 -52 -51 -50 -20 -34 -33 -32 -27 -26 -25 -55 -54 -53 0
-50 -51 -52 -24 -31 -53 -54 -25 -32 -55 -26 -33 -27 -34 -20 0
-50 -32 -25 -54 -53 -31 -24 -52 -51 -20 -34 -33 -27 -26 -55 0
-53 -54 -25 -32 -50 -55 -26 -33 -51 -27 -34 -52 -20 -24 -31 0
-53 -51 -33 -26 -55 -50 -32 -25 -54 -31 -24 -52 -20 -34 -27 0
-55 -26 -33 -51 -53 -27 -34 -52 -54 -20 -24 -25 -31 -32 -50 0
-27 -34 -52 -54 -55 -20 -24 -25 -26 -31 -32 -33 -50 -51 -53 0
-55 -54 -52 -34 -27 -53 -51 -33 -26 -50 -32 -25 -31 -24 -20 0
-21 -22 -23 -24 -25 -35 -36 -37 -38 -41 -42 -43 -46 -47 -50 0
-25 -24 -23 -22 -21 -50 -47 -43 -38 -46 -42 -37 -41 -36 -35 0
-21 -38 -37 -36 -35 -25 -24 -23 -22 -50 -47 -43 -46 -42 -41 0
-35 -36 -37 -38 -21 -41 -42 -43 -22 -46 -47 -23 -50 -24 -25 0
-35 -22 -43 -42 -41 -21 -38 -37 -36 -25 -24 -23 -50 -47 -46 0
-41 -42 -43 -22 -35 -46 -47 -23 -36 -50 -24 -37 -25 -38 -21 0
-41 -36 -23 -47 -46 -35 -22 -43 -42 -21 -38 -37 -25 -24 -50 0
-46 -47 -23 -36 -41 -50 -24 -37 -42 -25 -38 -43 -21 -22 -35 0
-46 -42 -37 -24 -50 -41 -36 -23 -47 -35 -22 -43 -21 -38 -25 0
-50 -24 -37 -42 -46 -25 -38 -43 -47 -21 -22 -23 -35 -36 -41 0
-25 -38 -43 -47 -50 -21 -22 -23 -24 -35 -36 -37 -41 -42 -46 0
-50 -47 -43 -38 -25 -46 -42 -37 -24 -41 -36 -23 -35 -22 -21 0
-21 -22 -23 -24 -26 -35 -36 -37 -39 -41 -42 -44 -46 -48 -51 0
-26 -24 -23 -22 -21 -51 -48 -44 -39 -46 -42 -37 -41 -36 -35 0
-21 -39 -37 -36 -35 -26 -24 -23 -22 -51 -48 -44 -46 -42 -41 0
-35 -36 -37 -39 -21 -41 -42 -44 -22 -46 -48 -23 -51 -24 -26 0
-35 -22 -44 -42 -41 -21 -39 -37 -36 -26 -24 -23 -51 -48 -46 0
-41 -42 -44 -22 -35 -46 -48 -23 -36 -51 -24 -37 -26 -39 -21 0
-41 -36 -23 -48 -46 -35 -22 -44 -42 -21 -39 -37 -26 -24 -51 0
-46 -48 -23 -36 -41 -51 -24 -37 -42 -26 -39 -44 -21 -22 -35 0
-46 -42 -37 -24 -51 -41 -36 -23 -48 -35 -22 -44 -21 -39 -26 0
-51 -24 -37 -42 -46 -26 -39 -44 -48 -21 -22 -23 -35 -36 -41 0
-26 -39 -44 -48 -51 -21 -22 -23 -24 -35 -36 -37 -41 -42 -46 0
-51 -48 -44 -39 -26 -46 -42 -37 -24 -41 -36 -23 -35 -22 -21 0
-21 -22 -23 -24 -27 -35 -36 -37 -40 -41 -42 -45 -46 -49 -52 0
-27 -24 -23 -22 -21 -52 -49 -45 -40 -46 -42 -37 -41 -36 -35 0
-21 -40 -37 -36 -35 -27 -24 -23 -22 -52 -49 -45 -46 -42 -41 0
-35 -36 -37 -40 -21 -41 -42 -45 -22 -46 -49 -23 -52 -24 -27 0
-35 -22 -45 -42 -41 -21 -40 -37 -36 -27 -24 -23 -52 -49 -46 0
-41 -42 -45 -22 -35 -46 -49 -23 -36 -52 -24 -37 -27 -40 -21 0
-41 -36 -23 -49 -46 -35 -22 -45 -42 -21 -40 -37 -27 -24 -52 0
-46 -49 -23 -36 -41 -52 -24 -37 -42 -27 -40 -45 -21 -22 -35 0
-46 -42 -37 -24 -52 -41 -36 -23 -49 -35 -22 -45 -21 -40 -27 0
-52 -24 -37 -42 -46 -27 -40 -45 -49 -21 -22 -23 -35 -36 -41 0
-27 -40 -45 -49 -52 -21 -22 -23 -24 -35 -36 -37 -41 -42 -46 0
-52 -49 -45 -40 -27 -46 -42 -37 -24 -41 -36 -23 -35 -22 -21 0
-21 -22 -23 -25 -26 -35 -36 -38 -39 -41 -43 -44 -47 -48 -53 0
-26 -25 -23 -22 -21 -53 -48 -44 -39 -47 -43 -38 -41 -36 -35 0
-21 -39 -38 -36 -35 -26 -25 -23 -22 -53 -48 -44 -47 -43 -41 0
-35 -36 -38 -39 -21 -41 -43 -44 -22 -47 -48 -23 -53 -25 -26 0
-35 -22 -44 -43 -41 -21 -39 -38 -36 -26 -25 -23 -53 -48 -47 0
-41 -43 -44 -22 -35 -47 -48 -23 -36 -53 -25 -38 -26 -39 -21 0
-41 -36 -23 -48 -47 -35 -22 -44 -43 -21 -39 -38 -26 -25 -53 0
-47 -48 -23 -36 -41 -53 -25 -38 -43 -26 -39 -44 -21 -22 -35 0
-47 -43 -38 -25 -53 -41 -36 -23 -48 -35 -22 -44 -21 -39 -26 0
-53 -25 -38 -43 -47 -26 -39 -44 -48 -21 -22 -23 -35 -36 -41 0
-26 -39 -44 -48 -53 -21 -22 -23 -25 -35 -36 -38 -41 -43 -47 0
-53 -48 -44 -39 -26 -47 -43 -38 -25 -41 -36 -23 -35 -22 -21 0
-21 -22 -23 -25 -27 -35 -36 -38 -40 -41 -43 -45 -47 -49 -54 0
-27 -25 -23 -22 -21 -54 -49 -45 -40 -47 -43 -38 -41 -36 -35 0
-21 -40 -38 -36 -35 -27 -25 -23 -22 -54 -49 -45 -47 -43 -41 0
-35 -36 -38 -40 -21 -41 -43 -45 -22 -47 -49 -23 -54 -25 -27 0
-35 -22 -45 -43 -41 -21 -40 -38 -36 -27 -25 -23 -54 -49 -47 0
-41 -43 -45 -22 -35 -47 -49 -23 -36 -54 -25 -38 -27 -40 -21 0
-41 -36 -23 -49 -47 -35 -22 -45 -43 -21 -40 -38 -27 -25 -54 0
-47 -49 -23 -36 -41 -54 -25 -38 -43 -27 -40 -45 -21 -22 -35 0
-47 -43 -38 -25 -54 -41 -36 -23 -49 -35 -22 -45 -21 -40 -27 0
-54 -25 -38 -43 -47 -27 -40 -45 -49 -21 -22 -23 -35 -36 -41 0
-27 -40 -45 -49 -54 -21 -22 -23 -25 -35 -36 -38 -41 -43 -47 0
-54 -49 -45 -40 -27 -47 -43 -38 -25 -41 -36 -23 -35 -22 -21 0
-21 -22 -23 -26 -27 -35 -36 -39 -40 -41 -44 -45 -48 -49 -55 0
-27 -26 -23 -22 -21 -55 -49 -45 -40 -48 -44 -39 -41 -36 -35 0
-21 -40 -39 -36 -35 -27 -26 -23 -22 -55 -49 -45 -48 -44 -41 0
-35 -36 -39 -40 -21 -41 -44 -45 -22 -48 -49 -23 -55 -26 -27 0
-35 -22 -45 -44 -41 -21 -40 -39 -36 -27 -26 -23 -55 -49 -48 0
-41 -44 -45 -22 -35 -48 -49 -23 -36 -55 -26 -39 -27 -40 -21 0
-41 -36 -23 -49 -48 -35 -22 -45 -44 -21 -40 -39 -27 -26 -55 0
-48 -49 -23 -36 -41 -55 -26 -39 -44 -27 -40 -45 -21 -22 -35 0
-48 -44 -39 -26 -55 -41 -36 -23 -49 -35 -22 -45 -21 -40 -27 0
-55 -26 -39 -44 -48 -27 -40 -45 -49 -21 -22 -23 -35 -36 -41 0
-27 -40 -45 -49 -55 -21 -22 -23 -26 -35 -36 -39 -41 -44 -48 0
-55 -49 -45 -40 -27 -48 -44 -39 -26 -41 -36 -23 -35 -22 -21 0
-21 -22 -24 -25 -26 -35 -37 -38 -39 -42 -43 -44 -50 -51 -53 0
-26 -25 -24 -22 -21 -53 -51 -44 -39 -50 -43 -38 -42 -37 -35 0
-21 -39 -38 -37 -35 -26 -25 -24 -22 -53 -51 -44 -50 -43 -42 0
-35 -37 -38 -39 -21 -42 -43 -44 -22 -50 -51 -24 -53 -25 -26 0
-35 -22 -44 -43 -42 -21 -39 -38 -37 -26 -25 -24 -53 -51 -50 0
-42 -43 -44 -22 -35 -50 -51 -24 -37 -53 -25 -38 -26 -39 -21 0
-42 -37 -24 -51 -50 -35 -22 -44 -43 -21 -39 -38 -26 -25 -53 0
-50 -51 -24 -37 -42 -53 -25 -38 -43 -26 -39 -44 -21 -22 -35 0
-50 -43 -38 -25 -53 -42 -37 -24 -51 -35 -22 -44 -21 -39 -26 0
-53 -25 -38 -43 -50 -26 -39 -44 -51 -21 -22 -24 -35 -37 -42 0
-26 -39 -44 -51 -53 -21 -22 -24 -25 -35 -37 -38 -42 -43 -50 0
-53 -51 -44 -39 -26 -50 -43 -38 -25 -42 -37 -24 -35 -22 -21 0
-21 -22 -24 -25 -27 -35 -37 -38 -40 -42 -43 -45 -50 -52 -54 0
-27 -25 -24 -22 -21 -54 -52 -45 -40 -50 -43 -38 -42 -37 -35 0
-21 -40 -38 -37 -35 -27 -25 -24 -22 -54 -52 -45 -50 -43 -42 0
-35 -37 -38 -40 -21 -42 -43 -45 -22 -50 -52 -24 -54 -25 -27 0
-35 -22 -45 -43 -42 -21 -40 -38 -37 -27 -25 -24 -54 -52 -50 0
-42 -43 -45 -22 -35 -50 -52 -24 -37 -54 -25 -38 -27 -40 -21 0
-42 -37 -24 -52 -50 -35 -22 -45 -43 -21 -40 -38 -27 -25 -54 0
-50 -52 -24 -37 -42 -54 -25 -38 -43 -27 -40 -45 -21 -22 -35 0
-50 -43 -38 -25 -54 -42 -37 -24 -52 -35 -22 -45 -21 -40 -27 0
-54 -25 -38 -43 -50 -27 -40 -45 -52 -21 -22 -24 -35 -37 -42 0
-27 -40 -45 -52 -54 -21 -22 -24 -25 -35 -37 -38 -42 -43 -50 0
-54 -52 -45 -40 -27 -50 -43 -38 -25 -42 -37 -24 -35 -22 -21 0
-21 -22 -24 -26 -27 -35 -37 -39 -40 -42 -44 -45 -51 -52 -55 0
-27 -26 -24 -22 -21 -55 -52 -45 -40 -51 -44 -39 -42 -37 -35 0
-21 -40 -39 -37 -35 -27 -26 -24 -22 -55 -52 -45 -51 -44 -42 0
-35 -37 -39 -40 -21 -42 -44 -45 -22 -51 -52 -24 -55 -26 -27 0
-35 -22 -45 -44 -42 -21 -40 -39 -37 -27 -26 -24 -55 -52 -51 0
-42 -44 -45 -22 -35 -51 -52 -24 -37 -55 -26 -39 -27 -40 -21 0
-42 -37 -24 -52 -51 -35 -22 -45 -44 -21 -40 -39 -27 -26 -55 0
-51 -52 -24 -37 -42 -55 -26 -39 -44 -27 -40 -45 -21 -22 -35 0
-51 -44 -39 -26 -55 -42 -37 -24 -52 -35 -22 -45 -21 -40 -27 0
-55 -26 -39 -44 -51 -27 -40 -45 -52 -21 -22 -24 -35 -37 -42 0
-27 -40 -45 -52 -55 -21 -22 -24 -26 -35 -37 -39 -42 -44 -51 0
-55 -52 -45 -40 -27 -51 -44 -39 -26 -42 -37 -24 -35 -22 -21 0
-21 -22 -25 -26 -27 -35 -38 -39 -40 -43 -44 -45 -53 -54 -55 0
-27 -26 -25 -22 -21 -55 -54 -45 -40 -53 -44 -39 -43 -38 -35 0
-21 -40 -39 -38 -35 -27 -26 -25 -22 -55 -54 -45 -53 -44 -43 0
-35 -38 -39 -40 -21 -43 -44 -45 -22 -53 -54 -25 -55 -26 -27 0
-35 -22 -45 -44 -43 -21 -40 -39 -38 -27 -26 -25 -55 -54 -53 0
-43 -44 -45 -22 -35 -53 -54 -25 -38 -55 -26 -39 -27 -40 -21 0
-43 -38 -25 -54 -53 -35 -22 -45 -44 -21 -40 -39 -27 -26 -55 0
-53 -54 -25 -38 -43 -55 -26 -39 -44 -27 -40 -45 -21 -22 -35 0
-53 -44 -39 -26 -55 -43 -38 -25 -54 -35 -22 -45 -21 -40 -27 0
-55 -26 -39 -44 -53 -27 -40 -45 -54 -21 -22 -25 -35 -38 -43 0
-27 -40 -45 -54 -55 -21 -22 -25 -26 -35 -38 -39 -43 -44 -53 0
-55 -54 -45 -40 -27 -53 -44 -39 -26 -43 -38 -25 -35 -22 -21 0
-21 -23 -24 -25 -26 -36 -37 -38 -39 -46 -47 -48 -50 -51 -53 0
-26 -25 -24 -23 -21 -53 -51 -48 -39 -50 -47 -38 -46 -37 -36 0
-21 -39 -38 -37 -36 -26 -25 -24 -23 -53 -51 -48 -50 -47 -46 0
-36 -37 -38 -39 -21 -46 -47 -48 -23 -50 -51 -24 -53 -25 -26 0
-36 -23 -48 -47 -46 -21 -39 -38 -37 -26 -25 -24 -53 -51 -50 0
-46 -47 -48 -23 -36 -50 -51 -24 -37 -53 -25 -38 -26 -39 -21 0
-46 -37 -24 -51 -50 -36 -23 -48 -47 -21 -39 -38 -26 -25 -53 0
-50 -51 -24 -37 -46 -53 -25 -38 -47 -26 -39 -48 -21 -23 -36 0
-50 -47 -38 -25 -53 -46 -37 -24 -51 -36 -23 -48 -21 -39 -26 0
-53 -25 -38 -47 -50 -26 -39 -48 -51 -21 -23 -24 -36 -37 -46 0
-26 -39 -48 -51 -53 -21 -23 -24 -25 -36 -37 -38 -46 -47 -50 0
-53 -51 -48 -39 -26 -50 -47 -38 -25 -46 -37 -24 -36 -23 -21 0
-21 -23 -24 -25 -27 -36 -37 -38 -40 -46 -47 -49 -50 -52 -54 0
-27 -25 -24 -23 -21 -54 -52 -49 -40 -50 -47 -38 -46 -37 -36 0
-21 -40 -38 -37 -36 -27 -25 -24 -23 -54 -52 -49 -50 -47 -46 0
-36 -37 -38 -40 -21 -46 -47 -49 -23 -50 -52 -24 -54 -25 -27 0
-36 -23 -49 -47 -46 -21 -40 -38 -37 -27 -25 -24 -54 -52 -50 0
-46 -47 -49 -23 -36 -50 -52 -24 -37 -54 -25 -38 -27 -40 -21 0
-46 -37 -24 -52 -50 -36 -23 -49 -47 -21 -40 -38 -27 -25 -54 0
-50 -52 -24 -37 -46 -54 -25 -38 -47 -27 -40 -49 -21 -23 -36 0
-50 -47 -38 -25 -54 -46 -37 -24 -52 -36 -23 -49 -21 -40 -27 0
-54 -25 -38 -47 -50 -27 -40 -49 -52 -21 -23 -24 -36 -37 -46 0
-27 -40 -49 -52 -54 -21 -23 -24 -25 -36 -37 -38 -46 -47 -50 0
-54 -52 -49 -40 -27 -50 -47 -38 -25 -46 -37 -24 -36 -23 -21 0
-21 -23 -24 -26 -27 -36 -37 -39 -40 -46 -48 -49 -51 -52 -55 0
-27 -26 -24 -23 -21 -55 -52 -49 -40 -51 -48 -39 -46 -37 -36 0
-21 -40 -39 -37 -36 -27 -26 -24 -23 -55 -52 -49 -51 -48 -46 0
-36 -37 -39 -40 -21 -46 -48 -49 -23 -51 -52 -24 -55 -26 -27 0
-36 -23 -49 -48 -46 -21 -40 -39 -37 -27 -26 -24 -55 -52 -51 0
-46 -48 -49 -23 -36 -51 -52 -24 -37 -55 -26 -39 -27 -40 -21 0
-46 -37 -24 -52 -51 -36 -23 -49 -48 -21 -40 -39 -27 -26 -55 0
-51 -52 -24 -37 -46 -55 -26 -39 -48 -27 -40 -49 -21 -23 -36 0
-51 -48 -39 -26 -55 -46 -37 -24 -52 -36 -23 -49 -21 -40 -27 0
-55 -26 -39 -48 -51 -27 -40 -49 -52 -21 -23 -24 -36 -37 -46 0
-27 -40 -49 -52 -55 -21 -23 -24 -26 -36 -37 -39 -46 -48 -51 0
-55 -52 -49 -40 -27 -51 -48 -39 -26 -46 -37 -24 -36 -23 -21 0
-21 -23 -25 -26 -27 -36 -38 -39 -40 -47 -48 -49 -53 -54 -55 0
-27 -26 -25 -23 -21 -55 -54 -49 -40 -53 -48 -39 -47 -38 -36 0
-21 -40 -39 -38 -36 -27 -26 -25 -23 -55 -54 -49 -53 -48 -47 0
-36 -38 -39 -40 -21 -47 -48 -49 -23 -53 -54 -25 -55 -26 -27 0
-36 -23 -49 -48 -47 -21 -40 -39 -38 -27 -26 -25 -55 -54 -53 0
-47 -48 -49 -23 -36 -53 -54 -25 -38 -55 -26 -39 -27 -40 -21 0
-47 -38 -25 -54 -53 -36 -23 -49 -48 -21 -40 -39 -27 -26 -55 0
-53 -54 -25 -38 -47 -55 -26 -39 -48 -27 -40 -49 -21 -23 -36 0
-53 -48 -39 -26 -55 -47 -38 -25 -54 -36 -23 -49 -21 -40 -27 0
-55 -26 -39 -48 -53 -27 -40 -49 -54 -21 -23 -25 -36 -38 -47 0
-27 -40 -49 -54 -55 -21 -23 -25 -26 -36 -38 -39 -47 -48 -53 0
-55 -54 -49 -40 -27 -53 -48 -39 -26 -47 -38 -25 -36 -23 -21 0
-21 -24 -25 -26 -27 -37 -38 -39 -40 -50 -51 -52 -53 -54 -55 0
-27 -26 -25 -24 -21 -55 -54 -52 -40 -53 -51 -39 -50 -38 -37 0
-21 -40 -39 -38 -37 -27 -26 -25 -24 -55 -54 -52 -53 -51 -50 0
-37 -38 -39 -40 -21 -50 -51 -52 -24 -53 -54 -25 -55 -26 -27 0
-37 -24 -52 -51 -50 -21 -40 -39 -38 -27 -26 -25 -55 -54 -53 0
-50 -51 -52 -24 -37 -53 -54 -25 -38 -55 -26 -39 -27 -40 -21 0
-50 -38 -25 -54 -53 -37 -24 -52 -51 -21 -40 -39 -27 -26 -55 0
-53 -54 -25 -38 -50 -55 -26 -39 -51 -27 -40 -52 -21 -24 -37 0
-53 -51 -39 -26 -55 -50 -38 -25 -54 -37 -24 -52 -21 -40 -27 0
-55 -26 -39 -51 -53 -27 -40 -52 -54 -21 -24 -25 -37 -38 -50 0
-27 -40 -52 -54 -55 -21 -24 -25 -26 -37 -38 -39 -50 -51 -53 0
-55 -54 -52 -40 -27 -53 -51 -39 -26 -50 -38 -25 -37 -24 -21 0
-22 -23 -24 -25 -26 -41 -42 -43 -44 -46 -47 -48 -50 -51 -53 0
-26 -25 -24 -23 -22 -53 -51 -48 -44 -50 -47 -43 -46 -42 -41 0
-22 -44 -43 -42 -41 -26 -25 -24 -23 -53 -51 -48 -50 -47 -46 0
-41 -42 -43 -44 -22 -46 -47 -48 -23 -50 -51 -24 -53 -25 -26 0
-41 -23 -48 -47 -46 -22 -44 -43 -42 -26 -25 -24 -53 -51 -50 0
-46 -47 -48 -23 -41 -50 -51 -24 -42 -53 -25 -43 -26 -44 -22 0
-46 -42 -24 -51 -50 -41 -23 -48 -47 -22 -44 -43 -26 -25 -53 0
-50 -51 -24 -42 -46 -53 -25 -43 -47 -26 -44 -48 -22 -23 -41 0
-50 -47 -43 -25 -53 -46 -42 -24 -51 -41 -23 -48 -22 -44 -26 0
-53 -25 -43 -47 -50 -26 -44 -48 -51 -22 -23 -24 -41 -42 -46 0
-26 -44 -48 -51 -53 -22 -23 -24 -25 -41 -42 -43 -46 -47 -50 0
-53 -51 -48 -44 -26 -50 -47 -43 -25 -46 -42 -24 -41 -23 -22 0
-22 -23 -24 -25 -27 -41 -42 -43 -45 -46 -47 -49 -50 -52 -54 0
-27 -25 -24 -23 -22 -54 -52 -49 -45 -50 -47 -43 -46 -42 -41 0
-22 -45 -43 -42 -41 -27 -25 -24 -23 -54 -52 -49 -50 -47 -46 0
-41 -42 -43 -45 -22 -46 -47 -49 -23 -50 -52 -24 -54 -25 -27 0
-41 -23 -49 -47 -46 -22 -45 -43 -42 -27 -25 -24 -54 -52 -50 0
-46 -47 -49 -23 -41 -50 -52 -24 -42 -54 -25 -43 -27 -45 -22 0
-46 -42 -24 -52 -50 -41 -23 -49 -47 -22 -45 -43 -27 -25 -54 0
-50 -52 -24 -42 -46 -54 -25 -43 -47 -27 -45 -49 -22 -23 -41 0
-50 -47 -43 -25 -54 -46 -42 -24 -52 -41 -23 -49 -22 -45 -27 0
-54 -25 -43 -47 -50 -27 -45 -49 -52 -22 -23 -24 -41 -42 -46 0
-27 -45 -49 -52 -54 -22 -23 -24 -25 -41 -42 -43 -46 -47 -50 0
-54 -52 -49 -45 -27 -50 -47 -43 -25 -46 -42 -24 -41 -23 -22 0
-22 -23 -24 -26 -27 -41 -42 -44 -45 -46 -48 -49 -51 -52 -55 0
-27 -26 -24 -23 -22 -55 -52 -49 -45 -51 -48 -44 -46 -42 -41 0
-22 -45 -44 -42 -41 -27 -26 -24 -23 -55 -52 -49 -51 -48 -46 0
-41 -42 -44 -45 -22 -46 -48 -49 -23 -51 -52 -24 -55 -26 -27 0
-41 -23 -49 -48 -46 -22 -45 -44 -42 -27 -26 -24 -55 -52 -51 0
-46 -48 -49 -23 -41 -51 -52 -24 -42 -55 -26 -44 -27 -45 -22 0
-46 -42 -24 -52 -51 -41 -23 -49 -48 -22 -45 -44 -27 -26 -55 0
-51 -52 -24 -42 -46 -55 -26 -44 -48 -27 -45 -49 -22 -23 -41 0
-51 -48 -44 -26 -55 -46 -42 -24 -52 -41 -23 -49 -22 -45 -27 0
-55 -26 -44 -48 -51 -27 -45 -49 -52 -22 -23 -24 -41 -42 -46 0
-27 -45 -49 -52 -55 -22 -23 -24 -26 -41 -42 -44 -46 -48 -51 0
-55 -52 -49 -45 -27 -51 -48 -44 -26 -46 -42 -24 -41 -23 -22 0
-22 -23 -25 -26 -27 -41 -43 -44 -45 -47 -48 -49 -53 -54 -55 0
-27 -26 -25 -23 -22 -55 -54 -49 -45 -53 -48 -44 -47 -43 -41 0
-22 -45 -44 -43 -41 -27 -26 -25 -23 -55 -54 -49 -53 -48 -47 0
-41 -43 -44 -45 -22 -47 -48 -49 -23 -53 -54 -25 -55 -26 -27 0
-41 -23 -49 -48 -47 -22 -45 -44 -43 -27 -26 -25 -55 -54 -53 0
-47 -48 -49 -23 -41 -53 -54 -25 -43 -55 -26 -44 -27 -45 -22 0
-47 -43 -25 -54 -53 -41 -23 -49 -48 -22 -45 -44 -27 -26 -55 0
-53 -54 -25 -43 -47 -55 -26 -44 -48 -27 -45 -49 -22 -23 -41 0
-53 -48 -44 -26 -55 -47 -43 -25 -54 -41 -23 -49 -22 -45 -27 0
-55 -26 -44 -48 -53 -27 -45 -49 -54 -22 -23 -25 -41 -43 -47 0
-27 -45 -49 -54 -55 -22 -23 -25 -26 -41 -43 -44 -47 -48 -53 0
-55 -54 -49 -45 -27 -53 -48 -44 -26 -47 -43 -25 -41 -23 -22 0
-22 -24 -25 -26 -27 -42 -43 -44 -45 -50 -51 -52 -53 -54 -55 0
-27 -26 -25 -24 -22 -55 -54 -52 -45 -53 -51 -44 -50 -43 -42 0
-22 -45 -44 -43 -42 -27 -26 -25 -24 -55 -54 -52 -53 -51 -50 0
-42 -43 -44 -45 -22 -50 -51 -52 -24 -53 -54 -25 -55 -26 -27 0
-42 -24 -52 -51 -50 -22 -45 -44 -43 -27 -26 -25 -55 -54 -53 0
-50 -51 -52 -24 -42 -53 -54 -25 -43 -55 -26 -44 -27 -45 -22 0
-50 -43 -25 -54 -53 -42 -24 -52 -51 -22 -45 -44 -27 -26 -55 0
-53 -54 -25 -43 -50 -55 -26 -44 -51 -27 -45 -52 -22 -24 -42 0
-53 -51 -44 -26 -55 -50 -43 -25 -54 -42 -24 -52 -22 -45 -27 0
-55 -26 -44 -51 -53 -27 -45 -52 -54 -22 -24 -25 -42 -43 -50 0
-27 -45 -52 -54 -55 -22 -24 -25 -26 -42 -43 -44 -50 -51 -53 0
-55 -54 -52 -45 -27 -53 -51 -44 -26 -50 -43 -25 -42 -24 -22 0
-23 -24 -25 -26 -27 -46 -47 -48 -49 -50 -51 -52 -53 -54 -55 0
-27 -26 -25 -24 -23 -55 -54 -52 -49 -53 -51 -48 -50 -47 -46 0
-23 -49 -48 -47 -46 -27 -26 -25 -24 -55 -54 -52 -53 -51 -50 0
-46 -47 -48 -49 -23 -50 -51 -52 -24 -53 -54 -25 -55 -26 -27 0
-46 -24 -52 -51 -50 -23 -49 -48 -47 -27 -26 -25 -55 -54 -53 0
-50 -51 -52 -24 -46 -53 -54 -25 -47 -55 -26 -48 -27 -49 -23 0
-50 -47 -25 -54 -53 -46 -24 -52 -51 -23 -49 -48 -27 -26 -55 0
-53 -54 -25 -47 -50 -55 -26 -48 -51 -27 -49 -52 -23 -24 -46 0
-53 -51 -48 -26 -55 -50 -47 -25 -54 -46 -24 -52 -23 -49 -27 0
-55 -26 -48 -51 -53 -27 -49 -52 -54 -23 -24 -25 -46 -47 -50 0
-27 -49 -52 -54 -55 -23 -24 -25 -26 -46 -47 -48 -50 -51 -53 0
-55 -54 -52 -49 -27 -53 -51 -48 -26 -50 -47 -25 -46 -24 -23 0
-28 -29 -30 -31 -32 -35 -36 -37 -38 -41 -42 -43 -46 -47 -50 0
-32 -31 -30 -29 -28 -50 -47 -43 -38 -46 -42 -37 -41 -36 -35 0
-28 -38 -37 -36 -35 -32 -31 -30 -29 -50 -47 -43 -46 -42 -41 0
-35 -36 -37 -38 -28 -41 -42 -43 -29 -46 -47 -30 -50 -31 -32 0
-35 -29 -43 -42 -41 -28 -38 -37 -36 -32 -31 -30 -50 -47 -46 0
-41 -42 -43 -29 -35 -46 -47 -30 -36 -50 -31 -37 -32 -38 -28 0
-41 -36 -30 -47 -46 -35 -29 -43 -42 -28 -38 -37 -32 -31 -50 0
-46 -47 -30 -36 -41 -50 -31 -37 -42 -32 -38 -43 -28 -29 -35 0
-46 -42 -37 -31 -50 -41 -36 -30 -47 -35 -29 -43 -28 -38 -32 0
-50 -31 -37 -42 -46 -32 -38 -43 -47 -28 -29 -30 -35 -36 -41 0
-32 -38 -43 -47 -50 -28 -29 -30 -31 -35 -36 -37 -41 -42 -46 0
-50 -47 -43 -38 -32 -46 -42 -37 -31 -41 -36 -30 -35 -29 -28 0
-28 -29 -30 -31 -33 -35 -36 -37 -39 -41 -42 -44 -46 -48 -51 0
-33 -31 -30 -29 -28 -51 -48 -44 -39 -46 -42 -37 -41 -36 -35 0
-28 -39 -37 -36 -35 -33 -31 -30 -29 -51 -48 -44 -46 -42 -41 0
-35 -36 -37 -39 -28 -41 -42 -44 -29 -46 -48 -30 -51 -31 -33 0
-35 -29 -44 -42 -41 -28 -39 -37 -36 -33 -31 -30 -51 -48 -46 0
-41 -42 -44 -29 -35 -46 -48 -30 -36 -51 -31 -37 -33 -39 -28 0
-41 -36 -30 -48 -46 -35 -29 -44 -42 -28 -39 -37 -33 -31 -51 0
-46 -48 -30 -36 -41 -51 -31 -37 -42 -33 -39 -44 -28 -29 -35 0
-46 -42 -37 -31 -51 -41 -36 -30 -48 -35 -29 -44 -28 -39 -33 0
-51 -31 -37 -42 -46 -33 -39 -44 -48 -28 -29 -30 -35 -36 -41 0
-33 -39 -44 -48 -51 -28 -29 -30 -31 -35 -36 -37 -41 -42 -46 0
-51 -48 -44 -39 -33 -46 -42 -37 -31 -41 -36 -30 -35 -29 -28 0
-28 -29 -30 -31 -34 -35 -36 -37 -40 -41 -42 -45 -46 -49 -52 0
-34 -31 -30 -29 -28 -52 -49 -45 -40 -46 -42 -37 -41 -36 -35 0
-28 -40 -37 -36 -35 -34 -31 -30 -29 -52 -49 -45 -46 -42 -41 0
-35 -36 -37 -40 -28 -41 -42 -45 -29 -46 -49 -30 -52 -31 -34 0
-35 -29 -45 -42 -41 -28 -40 -37 -36 -34 -31 -30 -52 -49 -46 0
-41 -42 -45 -29 -35 -46 -49 -30 -36 -52 -31 -37 -34 -40 -28 0
-41 -36 -30 -49 -46 -35 -29 -45 -42 -28 -40 -37 -34 -31 -52 0
-46 -49 -30 -36 -41 -52 -31 -37 -42 -34 -40 -45 -28 -29 -35 0
-46 -42 -37 -31 -52 -41 -36 -30 -49 -35 -29 -45 -28 -40 -34 0
-52 -31 -37 -42 -46 -34 -40 -45 -49 -28 -29 -30 -35 -36 -41 0
-34 -40 -45 -49 -52 -28 -29 -30 -31 -35 -36 -37 -41 -42 -46 0
-52 -49 -45 -40 -34 -46 -42 -37 -31 -41 -36 -30 -35 -29 -28 0
-28 -29 -30 -32 -33 -35 -36 -38 -39 -41 -43 -44 -47 -48 -53 0
-33 -32 -30 -29 -28 -53 -48 -44 -39 -47 -43 -38 -41 -36 -35 0
-28 -39 -38 -36 -35 -33 -32 -30 -29 -53 -48 -44 -47 -43 -41 0
-35 -36 -38 -39 -28 -41 -43 -44 -29 -47 -48 -30 -53 -32 -33 0
-35 -29 -44 -43 -41 -28 -39 -38 -36 -33 -32 -30 -53 -48 -47 0
-41 -43 -44 -29 -35 -47 -48 -30 -36 -53 -32 -38 -33 -39 -28 0
-41 -36 -30 -48 -47 -35 -29 -44 -43 -28 -39 -38 -33 -32 -53 0
-47 -48 -30 -36 -41 -53 -32 -38 -43 -33 -39 -44 -28 -29 -35 0
-47 -43 -38 -32 -53 -41 -36 -30 -48 -35 -29 -44 -28 -39 -33 0
-53 -32 -38 -43 -47 -33 -39 -44 -48 -28 -29 -30 -35 -36 -41 0
-33 -39 -44 -48 -53 -28 -29 -30 -32 -35 -36 -38 -41 -43 -47 0
-53 -48 -44 -39 -33 -47 -43 -38 -32 -41 -36 -30 -35 -29 -28 0
-28 -29 -30 -32 -34 -35 -36 -38 -40 -41 -43 -45 -47 -49 -54 0
-34 -32 -30 -29 -28 -54 -49 -45 -40 -47 -43 -38 -41 -36 -35 0
-28 -40 -38 -36 -35 -34 -32 -30 -29 -54 -49 -45 -47 -43 -41 0
-35 -36 -38 -40 -28 -41 -43 -45 -29 -47 -49 -30 -54 -32 -34 0
-35 -29 -45 -43 -41 -28 -40 -38 -36 -34 -32 -30 -54 -49 -47 0
-41 -43 -45 -29 -35 -47 -49 -30 -36 -54 -32 -38 -34 -40 -28 0
-41 -36 -30 -49 -47 -35 -29 -45 -43 -28 -40 -38 -34 -32 -54 0
-47 -49 -30 -36 -41 -54 -32 -38 -43 -34 -40 -45 -28 -29 -35 0
-47 -43 -38 -32 -54 -41 -36 -30 -49 -35 -29 -45 -28 -40 -34 0
-54 -32 -38 -43 -47 -34 -40 -45 -49 -28 -29 -30 -35 -36 -41 0
-34 -40 -45 -49 -54 -28 -29 -30 -32 -35 -36 -38 -41 -43 -47 0
-54 -49 -45 -40 -34 -47 -43 -38 -32 -41 -36 -30 -35 -29 -28 0
-28 -29 -30 -33 -34 -35 -36 -39 -40 -41 -44 -45 -48 -49 -55 0
-34 -33 -30 -29 -28 -55 -49 -45 -40 -48 -44 -39 -41 -36 -35 0
-28 -40 -39 -36 -35 -34 -33 -30 -29 -55 -49 -45 -48 -44 -41 0
-35 -36 -39 -40 -28 -41 -44 -45 -29 -48 -49 -30 -55 -33 -34 0
-35 -29 -45 -44 -41 -28 -40 -39 -36 -34 -33 -30 -55 -49 -48 0
-41 -44 -45 -29 -35 -48 -49 -30 -36 -55 -33 -39 -34 -40 -28 0
-41 -36 -30 -49 -48 -35 -29 -45 -44 -28 -40 -39 -34 -33 -55 0
-48 -49 -30 -36 -41 -55 -33 -39 -44 -34 -40 -45 -28 -29 -35 0
-48 -44 -39 -33 -55 -41 -36 -30 -49 -35 -29 -45 -28 -40 -34 0
-55 -33 -39 -44 -48 -34 -40 -45 -49 -28 -29 -30 -35 -36 -41 0
-34 -40 -45 -49 -55 -28 -29 -30 -33 -35 -36 -39 -41 -44 -48 0
-55 -49 -45 -40 -34 -48 -44 -39 -33 -41 -36 -30 -35 -29 -28 0
-28 -29 -31 -32 -33 -35 -37 -38 -39 -42 -43 -44 -50 -51 -53 0
-33 -32 -31 -29 -28 -53 -51 -44 -39 -50 -43 -38 -42 -37 -35 0
-28 -39 -38 -37 -35 -33 -32 -31 -29 -53 -51 -44 -50 -43 -42 0
-35 -37 -38 -39 -28 -42 -43 -44 -29 -50 -51 -31 -53 -32 -33 0
-35 -29 -44 -43 -42 -28 -39 -38 -37 -33 -32 -31 -53 -51 -50 0
-42 -43 -44 -29 -35 -50 -51 -31 -37 -53 -32 -38 -33 -39 -28 0
-42 -37 -31 -51 -50 -35 -29 -44 -43 -28 -39 -38 -33 -32 -53 0
-50 -51 -31 -37 -42 -53 -32 -38 -43 -33 -39 -44 -28 -29 -35 0
-50 -43 -38 -32 -53 -42 -37 -31 -51 -35 -29 -44 -28 -39 -33 0
-53 -32 -38 -43 -50 -33 -39 -44 -51 -28 -29 -31 -35 -37 -42 0
-33 -39 -44 -51 -53 -28 -29 -31 -32 -35 -37 -38 -42 -43 -50 0
-53 -51 -44 -39 -33 -50 -43 -38 -32 -42 -37 -31 -35 -29 -28 0
-28 -29 -31 -32 -34 -35 -37 -38 -40 -42 -43 -45 -50 -52 -54 0
-34 -32 -31 -29 -28 -54 -52 -45 -40 -50 -43 -38 -42 -37 -35 0
-28 -40 -38 -37 -35 -34 -32 -31 -29 -54 -52 -45 -50 -43 -42 0
-35 -37 -38 -40 -28 -42 -43 -45 -29 -50 -52 -31 -54 -32 -34 0
-35 -29 -45 -43 -42 -28 -40 -38 -37 -34 -32 -31 -54 -52 -50 0
-42 -43 -45 -29 -35 -50 -52 -31 -37 -54 -32 -38 -34 -40 -28 0
-42 -37 -31 -52 -50 -35 -29 -45 -43 -28 -40 -38 -34 -32 -54 0
-50 -52 -31 -37 -42 -54 -32 -38 -43 -34 -40 -45 -28 -29 -35 0
-50 -43 -38 -32 -54 -42 -37 -31 -52 -35 -29 -45 -28 -40 -34 0
-54 -32 -38 -43 -50 -34 -40 -45 -52 -28 -29 -31 -35 -37 -42 0
-34 -40 -45 -52 -54 -28 -29 -31 -32 -35 -37 -38 -42 -43 -50 0
-54 -52 -45 -40 -34 -50 -43 -38 -32 -42 -37 -31 -35 -29 -28 0
-28 -29 -31 -33 -34 -35 -37 -39 -40 -42 -44 -45 -51 -52 -55 0
-34 -33 -31 -29 -28 -55 -52 -45 -40 -51 -44 -39 -42 -37 -35 0
-28 -40 -39 -37 -35 -34 -33 -31 -29 -55 -52 -45 -51 -44 -42 0
-35 -37 -39 -40 -28 -42 -44 -45 -29 -51 -52 -31 -55 -33 -34 0
-35 -29 -45 -44 -42 -28 -40 -39 -37 -34 -33 -31 -55 -52 -51 0
-42 -44 -45 -29 -35 -51 -52 -31 -37 -55 -33 -39 -34 -40 -28 0
-42 -37 -31 -52 -51 -35 -29 -45 -44 -28 -40 -39 -34 -33 -55 0
-51 -52 -31 -37 -42 -55 -33 -39 -44 -34 -40 -45 -28 -29 -35 0
-51 -44 -39 -33 -55 -42 -37 -31 -52 -35 -29 -45 -28 -40 -34 0
-55 -33 -39 -44 -51 -34 -40 -45 -52 -28 -29 -31 -35 -37 -42 0
-34 -40 -45 -52 -55 -28 -29 -31 -33 -35 -37 -39 -42 -44 -51 0
-55 -52 -45 -40 -34 -51 -44 -39 -33 -42 -37 -31 -35 -29 -28 0
-28 -29 -32 -33 -34 -35 -38 -39 -40 -43 -44 -45 -53 -54 -55 0
-34 -33 -32 -29 -28 -55 -54 -45 -40 -53 -44 -39 -43 -38 -35 0
-28 -40 -39 -38 -35 -34 -33 -32 -29 -55 -54 -45 -53 -44 -43 0
-35 -38 -39 -40 -28 -43 -44 -45 -29 -53 -54 -32 -55 -33 -34 0
-35 -29 -45 -44 -43 -28 -40 -39 -38 -34 -33 -32 -55 -54 -53 0
-43 -44 -45 -29 -35 -53 -54 -32 -38 -55 -33 -39 -34 -40 -28 0
-43 -38 -32 -54 -53 -35 -29 -45 -44 -28 -40 -39 -34 -33 -55 0
-53 -54 -32 -38 -43 -55 -33 -39 -44 -34 -40 -45 -28 -29 -35 0
-53 -44 -39 -33 -55 -43 -38 -32 -54 -35 -29 -45 -28 -40 -34 0
-55 -33 -39 -44 -53 -34 -40 -45 -54 -28 -29 -32 -35 -38 -43 0
-34 -40 -45 -54 -55 -28 -29 -32 -33 -35 -38 -39 -43 -44 -53 0
-55 -54 -45 -40 -34 -53 -44 -39 -33 -43 -38 -32 -35 -29 -28 0
-28 -30 -31 -32 -33 -36 -37 -38 -39 -46 -47 -48 -50 -51 -53 0
-33 -32 -31 -30 -28 -53 -51 -48 -39 -50 -47 -38 -46 -37 -36 0
-28 -39 -38 -37 -36 -33 -32 -31 -30 -53 -51 -48 -50 -47 -46 0
-36 -37 -38 -39 -28 -46 -47 -48 -30 -50 -51 -31 -53 -32 -33 0
-36 -30 -48 -47 -46 -28 -39 -38 -37 -33 -32 -31 -53 -51 -50 0
-46 -47 -48 -30 -36 -50 -51 -31 -37 -53 -32 -38 -33 -39 -28 0
-46 -37 -31 -51 -50 -36 -30 -48 -47 -28 -39 -38 -33 -32 -53 0
-50 -51 -31 -37 -46 -53 -32 -38 -47 -33 -39 -48 -28 -30 -36 0
-50 -47 -38 -32 -53 -46 -37 -31 -51 -36 -30 -48 -28 -39 -33 0
-53 -32 -38 -47 -50 -33 -39 -48 -51 -28 -30 -31 -36 -37 -46 0
-33 -39 -48 -51 -53 -28 -30 -31 -32 -36 -37 -38 -46 -47 -50 0
-53 -51 -48 -39 -33 -50 -47 -38 -32 -46 -37 -31 -36 -30 -28 0
-28 -30 -31 -32 -34 -36 -37 -38 -40 -46 -47 -49 -50 -52 -54 0
-34 -32 -31 -30 -28 -54 -52 -49 -40 -50 -47 -38 -46 -37 -36 0
-28 -40 -38 -37 -36 -34 -32 -31 -30 -54 -52 -49 -50 -47 -46 0
-36 -37 -38 -40 -28 -46 -47 -49 -30 -50 -52 -31 -54 -32 -34 0
-36 -30 -49 -47 -46 -28 -40 -38 -37 -34 -32 -31 -54 -52 -50 0
-46 -47 -49 -30 -36 -50 -52 -31 -37 -54 -32 -38 -34 -40 -28 0
-46 -37 -31 -52 -50 -36 -30 -49 -47 -28 -40 -38 -34 -32 -54 0
-50 -52 -31 -37 -46 -54 -32 -38 -47 -34 -40 -49 -28 -30 -36 0
-50 -47 -38 -32 -54 -46 -37 -31 -52 -36 -30 -49 -28 -40 -34 0
-54 -32 -38 -47 -50 -34 -40 -49 -52 -28 -30 -31 -36 -37 -46 0
-34 -40 -49 -52 -54 -28 -30 -31 -32 -36 -37 -38 -46 -47 -50 0
-54 -52 -49 -40 -34 -50 -47 -38 -32 -46 -37 -31 -36 -30 -28 0
-28 -30 -31 -33 -34 -36 -37 -39 -40 -46 -48 -49 -51 -52 -55 0
-34 -33 -31 -30 -28 -55 -52 -49 -40 -51 -48 -39 -46 -37 -36 0
-28 -40 -39 -37 -36 -34 -33 -31 -30 -55 -52 -49 -51 -48 -46 0
-36 -37 -39 -40 -28 -46 -48 -49 -30 -51 -52 -31 -55 -33 -34 0
-36 -30 -49 -48 -46 -28 -40 -39 -37 -34 -33 -31 -55 -52 -51 0
-46 -48 -49 -30 -36 -51 -52 -31 -37 -55 -33 -39 -34 -40 -28 0
-46 -37 -31 -52 -51 -36 -30 -49 -48 -28 -40 -39 -34 -33 -55 0
-51 -52 -31 -37 -46 -55 -33 -39 -48 -34 -40 -49 -28 -30 -36 0
-51 -48 -39 -33 -55 -46 -37 -31 -52 -36 -30 -49 -28 -40 -34 0
-55 -33 -39 -48 -51 -34 -40 -49 -52 -28 -30 -31 -36 -37 -46 0
-34 -40 -49 -52 -55 -28 -30 -31 -33 -36 -37 -39 -46 -48 -51 0
-55 -52 -49 -40 -34 -51 -48 -39 -33 -46 -37 -31 -36 -30 -28 0
-28 -30 -32 -33 -34 -36 -38 -39 -40 -47 -48 -49 -53 -54 -55 0
-34 -33 -32 -30 -28 -55 -54 -49 -40 -53 -48 -39 -47 -38 -36 0
-28 -40 -39 -38 -36 -34 -33 -32 -30 -55 -54 -49 -53 -48 -47 0
-36 -38 -39 -40 -28 -47 -48 -49 -30 -53 -54 -32 -55 -33 -34 0
-36 -30 -49 -48 -47 -28 -40 -39 -38 -34 -33 -32 -55 -54 -53 0
-47 -48 -49 -30 -36 -53 -54 -32 -38 -55 -33 -39 -34 -40 -28 0
-47 -38 -32 -54 -53 -36 -30 -49 -48 -28 -40 -39 -34 -33 -55 0
-53 -54 -32 -38 -47 -55 -33 -39 -48 -34 -40 -49 -28 -30 -36 0
-53 -48 -39 -33 -55 -47 -38 -32 -54 -36 -30 -49 -28 -40 -34 0
-55 -33 -39 -48 -53 -34 -40 -49 -54 -28 -30 -32 -36 -38 -47 0
-34 -40 -49 -54 -55 -28 -30 -32 -33 -36 -38 -39 -47 -48 -53 0
-55 -54 -49 -40 -34 -53 -48 -39 -33 -47 -38 -32 -36 -30 -28 0
-28 -31 -32 -33 -34 -37 -38 -39 -40 -50 -51 -52 -53 -54 -55 0
-34 -33 -32 -31 -28 -55 -54 -52 -40 -53 -51 -39 -50 -38 -37 0
-28 -40 -39 -38 -37 -34 -33 -32 -31 -55 -54 -52 -53 -51 -50 0
-37 -38 -39 -40 -28 -50 -51 -52 -31 -53 -54 -32 -55 -33 -34 0
-37 -31 -52 -51 -50 -28 -40 -39 -38 -34 -33 -32 -55 -54 -53 0
-50 -51 -52 -31 -37 -53 -54 -32 -38 -55 -33 -39 -34 -40 -28 0
-50 -38 -32 -54 -53 -37 -31 -52 -51 -28 -40 -39 -34 -33 -55 0
-53 -54 -32 -38 -50 -55 -33 -39 -51 -34 -40 -52 -28 -31 -37 0
-53 -51 -39 -33 -55 -50 -38 -32 -54 -37 -31 -52 -28 -40 -34 0
-55 -33 -39 -51 -53 -34 -40 -52 -54 -28 -31 -32 -37 -38 -50 0
-34 -40 -52 -54 -55 -28 -31 -32 -33 -37 -38 -39 -50 -51 -53 0
-55 -54 -52 -40 -34 -53 -51 -39 -33 -50 -38 -32 -37 -31 -28 0
-29 -30 -31 -32 -33 -41 -42 -43 -44 -46 -47 -48 -50 -51 -53 0
-33 -32 -31 -30 -29 -53 -51 -48 -44 -50 -47 -43 -46 -42 -41 0
-29 -44 -43 -42 -41 -33 -32 -31 -30 -53 -51 -48 -50 -47 -46 0
-41 -42 -43 -44 -29 -46 -47 -48 -30 -50 -51 -31 -53 -32 -33 0
-41 -30 -48 -47 -46 -29 -44 -43 -42 -33 -32 -31 -53 -51 -50 0
-46 -47 -48 -30 -41 -50 -51 -31 -42 -53 -32 -43 -33 -44 -29 0
-46 -42 -31 -51 -50 -41 -30 -48 -47 -29 -44 -43 -33 -32 -53 0
-50 -51 -31 -42 -46 -53 -32 -43 -47 -33 -44 -48 -29 -30 -41 0
-50 -47 -43 -32 -53 -46 -42 -31 -51 -41 -30 -48 -29 -44 -33 0
-53 -32 -43 -47 -50 -33 -44 -48 -51 -29 -30 -31 -41 -42 -46 0
-33 -44 -48 -51 -53 -29 -30 -31 -32 -41 -42 -43 -46 -47 -50 0
-53 -51 -48 -44 -33 -50 -47 -43 -32 -46 -42 -31 -41 -30 -29 0
-29 -30 -31 -32 -34 -41 -42 -43 -45 -46 -47 -49 -50 -52 -54 0
-34 -32 -31 -30 -29 -54 -52 -49 -45 -50 -47 -43 -46 -42 -41 0
-29 -45 -43 -42 -41 -34 -32 -31 -30 -54 -52 -49 -50 -47 -46 0
-41 -42 -43 -45 -29 -46 -47 -49 -30 -50 -52 -31 -54 -32 -34 0
-41 -30 -49 -47 -46 -29 -45 -43 -42 -34 -32 -31 -54 -52 -50 0
-46 -47 -49 -30 -41 -50 -52 -31 -42 -54 -32 -43 -34 -45 -29 0
-46 -42 -31 -52 -50 -41 -30 -49 -47 -29 -45 -43 -34 -32 -54 0
-50 -52 -31 -42 -46 -54 -32 -43 -47 -34 -45 -49 -29 -30 -41 0
-50 -47 -43 -32 -54 -46 -42 -31 -52 -41 -30 -49 -29 -45 -34 0
-54 -32 -43 -47 -50 -34 -45 -49 -52 -29 -30 -31 -41 -42 -46 0
-34 -45 -49 -52 -54 -29 -30 -31 -32 -41 -42 -43 -46 -47 -50 0
-54 -52 -49 -45 -34 -50 -47 -43 -32 -46 -42 -31 -41 -30 -29 0
-29 -30 -31 -33 -34 -41 -42 -44 -45 -46 -48 -49 -51 -52 -55 0
-34 -33 -31 -30 -29 -55 -52 -49 -45 -51 -48 -44 -46 -42 -41 0
-29 -45 -44 -42 -41 -34 -33 -31 -30 -55 -52 -49 -51 -48 -46 0
-41 -42 -44 -45 -29 -46 -48 -49 -30 -51 -52 -31 -55 -33 -34 0
-41 -30 -49 -48 -46 -29 -45 -44 -42 -34 -33 -31 -55 -52 -51 0
-46 -48 -49 -30 -41 -51 -52 -31 -42 -55 -33 -44 -34 -45 -29 0
-46 -42 -31 -52 -51 -41 -30 -49 -48 -29 -45 -44 -34 -33 -55 0
-51 -52 -31 -42 -46 -55 -33 -44 -48 -34 -45 -49 -29 -30 -41 0
-51 -48 -44 -33 -55 -46 -42 -31 -52 -41 -30 -49 -29 -45 -34 0
-55 -33 -44 -48 -51 -34 -45 -49 -52 -29 -30 -31 -41 -42 -46 0
-34 -45 -49 -52 -55 -29 -30 -31 -33 -41 -42 -44 -46 -48 -51 0
-55 -52 -49 -45 -34 -51 -48 -44 -33 -46 -42 -31 -41 -30 -29 0
-29 -30 -32 -33 -34 -41 -43 -44 -45 -47 -48 -49 -53 -54 -55 0
-34 -33 -32 -30 -29 -55 -54 -49 -45 -53 -48 -44 -47 -43 -41 0
-29 -45 -44 -43 -41 -34 -33 -32 -30 -55 -54 -49 -53 -48 -47 0
-41 -43 -44 -45 -29 -47 -48 -49 -30 -53 -54 -32 -55 -33 -34 0
-41 -30 -49 -48 -47 -29 -45 -44 -43 -34 -33 -32 -55 -54 -53 0
-47 -48 -49 -30 -41 -53 -54 -32 -43 -55 -33 -44 -34 -45 -29 0
-47 -43 -32 -54 -53 -41 -30 -49 -48 -29 -45 -44 -34 -33 -55 0
-53 -54 -32 -43 -47 -55 -33 -44 -48 -34 -45 -49 -29 -30 -41 0
-53 -48 -44 -33 -55 -47 -43 -32 -54 -41 -30 -49 -29 -45 -34 0
-55 -33 -44 -48 -53 -34 -45 -49 -54 -29 -30 -32 -41 -43 -47 0
-34 -45 -49 -54 -55 -29 -30 -32 -33 -41 -43 -44 -47 -48 -53 0
-55 -54 -49 -45 -34 -53 -48 -44 -33 -47 -43 -32 -41 -30 -29 0
-29 -31 -32 -33 -34 -42 -43 -44 -45 -50 -51 -52 -53 -54 -55 0
-34 -33 -32 -31 -29 -55 -54 -52 -45 -53 -51 -44 -50 -43 -42 0
-29 -45 -44 -43 -42 -34 -33 -32 -31 -55 -54 -52 -53 -51 -50 0
-42 -43 -44 -45 -29 -50 -51 -52 -31 -53 -54 -32 -55 -33 -34 0
-42 -31 -52 -51 -50 -29 -45 -44 -43 -34 -33 -32 -55 -54 -53 0
-50 -51 -52 -31 -42 -53 -54 -32 -43 -55 -33 -44 -34 -45 -29 0
-50 -43 -32 -54 -53 -42 -31 -52 -51 -29 -45 -44 -34 -33 -55 0
-53 -54 -32 -43 -50 -55 -33 -44 -51 -34 -45 -52 -29 -31 -42 0
-53 -51 -44 -33 -55 -50 -43 -32 -54 -42 -31 -52 -29 -45 -34 0
-55 -33 -44 -51 -53 -34 -45 -52 -54 -29 -31 -32 -42 -43 -50 0
-34 -45 -52 -54 -55 -29 -31 -32 -33 -42 -43 -44 -50 -51 -53 0
-55 -54 -52 -45 -34 -53 -51 -44 -33 -50 -43 -32 -42 -31 -29 0
-30 -31 -32 -33 -34 -46 -47 -48 -49 -50 -51 -52 -53 -54 -55 0
-34 -33 -32 -31 -30 -55 -54 -52 -49 -53 -51 -48 -50 -47 -46 0
-30 -49 -48 -47 -46 -34 -33 -32 -31 -55 -54 -52 -53 -51 -50 0
-46 -47 -48 -49 -30 -50 -51 -52 -31 -53 -54 -32 -55 -33 -34 0
-46 -31 -52 -51 -50 -30 -49 -48 -47 -34 -33 -32 -55 -54 -53 0
-50 -51 -52 -31 -46 -53 -54 -32 -47 -55 -33 -48 -34 -49 -30 0
-50 -47 -32 -54 -53 -46 -31 -52 -51 -30 -49 -48 -34 -33 -55 0
-53 -54 -32 -47 -50 -55 -33 -48 -51 -34 -49 -52 -30 -31 -46 0
-53 -51 -48 -33 -55 -50 -47 -32 -54 -46 -31 -52 -30 -49 -34 0
-55 -33 -48 -51 -53 -34 -49 -52 -54 -30 -31 -32 -46 -47 -50 0
-34 -49 -52 -54 -55 -30 -31 -32 -33 -46 -47 -48 -50 -51 -53 0
-55 -54 -52 -49 -34 -53 -51 -48 -33 -50 -47 -32 -46 -31 -30 0
-35 -36 -37 -38 -39 -41 -42 -43 -44 -46 -47 -48 -50 -51 -53 0
-39 -38 -37 -36 -35 -53 -51 -48 -44 -50 -47 -43 -46 -42 -41 0
-35 -44 -43 -42 -41 -39 -38 -37 -36 -53 -51 -48 -50 -47 -46 0
-41 -42 -43 -44 -35 -46 -47 -48 -36 -50 -51 -37 -53 -38 -39 0
-41 -36 -48 -47 -46 -35 -44 -43 -42 -39 -38 -37 -53 -51 -50 0
-46 -47 -48 -36 -41 -50 -51 -37 -42 -53 -38 -43 -39 -44 -35 0
-46 -42 -37 -51 -50 -41 -36 -48 -47 -35 -44 -43 -39 -38 -53 0
-50 -51 -37 -42 -46 -53 -38 -43 -47 -39 -44 -48 -35 -36 -41 0
-50 -47 -43 -38 -53 -46 -42 -37 -51 -41 -36 -48 -35 -44 -39 0
-53 -38 -43 -47 -50 -39 -44 -48 -51 -35 -36 -37 -41 -42 -46 0
-39 -44 -48 -51 -53 -35 -36 -37 -38 -41 -42 -43 -46 -47 -50 0
-53 -51 -48 -44 -39 -50 -47 -43 -38 -46 -42 -37 -41 -36 -35 0
-35 -36 -37 -38 -40 -41 -42 -43 -45 -46 -47 -49 -50 -52 -54 0
-40 -38 -37 -36 -35 -54 -52 -49 -45 -50 -47 -43 -46 -42 -41 0
-35 -45 -43 -42 -41 -40 -38 -37 -36 -54 -52 -49 -50 -47 -46 0
-41 -42 -43 -45 -35 -46 -47 -49 -36 -50 -52 -37 -54 -38 -40 0
-41 -36 -49 -47 -46 -35 -45 -43 -42 -40 -38 -37 -54 -52 -50 0
-46 -47 -49 -36 -41 -50 -52 -37 -42 -54 -38 -43 -40 -45 -35 0
-46 -42 -37 -52 -50 -41 -36 -49 -47 -35 -45 -43 -40 -38 -54 0
-50 -52 -37 -42 -46 -54 -38 -43 -47 -40 -45 -49 -35 -36 -41 0
-50 -47 -43 -38 -54 -46 -42 -37 -52 -41 -36 -49 -35 -45 -40 0
-54 -38 -43 -47 -50 -40 -45 -49 -52 -35 -36 -37 -41 -42 -46 0
-40 -45 -49 -52 -54 -35 -36 -37 -38 -41 -42 -43 -46 -47 -50 0
-54 -52 -49 -45 -40 -50 -47 -43 -38 -46 -42 -37 -41 -36 -35 0
-35 -36 -37 -39 -40 -41 -42 -44 -45 -46 -48 -49 -51 -52 -55 0
-40 -39 -37 -36 -35 -55 -52 -49 -45 -51 -48 -44 -46 -42 -41 0
-35 -45 -44 -42 -41 -40 -39 -37 -36 -55 -52 -49 -51 -48 -46 0
-41 -42 -44 -45 -35 -46 -48 -49 -36 -51 -52 -37 -55 -39 -40 0
-41 -36 -49 -48 -46 -35 -45 -44 -42 -40 -39 -37 -55 -52 -51 0
-46 -48 -49 -36 -41 -51 -52 -37 -42 -55 -39 -44 -40 -45 -35 0
-46 -42 -37 -52 -51 -41 -36 -49 -48 -35 -45 -44 -40 -39 -55 0
-51 -52 -37 -42 -46 -55 -39 -44 -48 -40 -45 -49 -35 -36 -41 0
-51 -48 -44 -39 -55 -46 -42 -37 -52 -41 -36 -49 -35 -45 -40 0
-55 -39 -44 -48 -51 -40 -45 -49 -52 -35 -36 -37 -41 -42 -46 0
-40 -45 -49 -52 -55 -35 -36 -37 -39 -41 -42 -44 -46 -48 -51 0
-55 -52 -49 -45 -40 -51 -48 -44 -39 -46 -42 -37 -41 -36 -35 0
-35 -36 -38 -39 -40 -41 -43 -44 -45 -47 -48 -49 -53 -54 -55 0
-40 -39 -38 -36 -35 -55 -54 -49 -45 -53 -48 -44 -47 -43 -41 0
-35 -45 -44 -43 -41 -40 -39 -38 -36 -55 -54 -49 -53 -48 -47 0
-41 -43 -44 -45 -35 -47 -48 -49 -36 -53 -54 -38 -55 -39 -40 0
-41 -36 -49 -48 -47 -35 -45 -44 -43 -40 -39 -38 -55 -54 -53 0
-47 -48 -49 -36 -41 -53 -54 -38 -43 -55 -39 -44 -40 -45 -35 0
-47 -43 -38 -54 -53 -41 -36 -49 -48 -35 -45 -44 -40 -39 -55 0
-53 -54 -38 -43 -47 -55 -39 -44 -48 -40 -45 -49 -35 -36 -41 0
-53 -48 -44 -39 -55 -47 -43 -38 -54 -41 -36 -49 -35 -45 -40 0
-55 -39 -44 -48 -53 -40 -45 -49 -54 -35 -36 -38 -41 -43 -47 0
-40 -45 -49 -54 -55 -35 -36 -38 -39 -41 -43 -44 -47 -48 -53 0
-55 -54 -49 -45 -40 -53 -48 -44 -39 -47 -43 -38 -41 -36 -35 0
-35 -37 -38 -39 -40 -42 -43 -44 -45 -50 -51 -52 -53 -54 -55 0
-40 -39 -38 -37 -35 -55 -54 -52 -45 -53 -51 -44 -50 -43 -42 0
-35 -45 -44 -43 -42 -40 -39 -38 -37 -55 -54 -52 -53 -51 -50 0
-42 -43 -44 -45 -35 -50 -51 -52 -37 -53 -54 -38 -55 -39 -40 0
-42 -37 -52 -51 -50 -35 -45 -44 -43 -40 -39 -38 -55 -54 -53 0
-50 -51 -52 -37 -42 -53 -54 -38 -43 -55 -39 -44 -40 -45 -35 0
-50 -43 -38 -54 -53 -42 -37 -52 -51 -35 -45 -44 -40 -39 -55 0
-53 -54 -38 -43 -50 -55 -39 -44 -51 -40 -45 -52 -35 -37 -42 0
-53 -51 -44 -39 -55 -50 -43 -38 -54 -42 -37 -52 -35 -45 -40 0
-55 -39 -44 -51 -53 -40 -45 -52 -54 -35 -37 -38 -42 -43 -50 0
-40 -45 -52 -54 -55 -35 -37 -38 -39 -42 -43 -44 -50 -51 -53 0
-55 -54 -52 -45 -40 -53 -51 -44 -39 -50 -43 -38 -42 -37 -35 0
-36 -37 -38 -39 -40 -46 -47 -48 -49 -50 -51 -52 -53 -54 -55 0
-40 -39 -38 -37 -36 -55 -54 -52 -49 -53 -51 -48 -50 -47 -46 0
-36 -49 -48 -47 -46 -40 -39 -38 -37 -55 -54 -52 -53 -51 -50 0
-46 -47 -48 -49 -36 -50 -51 -52 -37 -53 -54 -38 -55 -39 -40 0
-46 -37 -52 -51 -50 -36 -49 -48 -47 -40 -39 -38 -55 -54 -53 0
-50 -51 -52 -37 -46 -53 -54 -38 -47 -55 -39 -48 -40 -49 -36 0
-50 -47 -38 -54 -53 -46 -37 -52 -51 -36 -49 -48 -40 -39 -55 0
-53 -54 -38 -47 -50 -55 -39 -48 -51 -40 -49 -52 -36 -37 -46 0
-53 -51 -48 -39 -55 -50 -47 -38 -54 -46 -37 -52 -36 -49 -40 0
-55 -39 -48 -51 -53 -40 -49 -52 -54 -36 -37 -38 -46 -47 -50 0
-40 -49 -52 -54 -55 -36 -37 -38 -39 -46 -47 -48 -50 -51 -53 0
-55 -54 -52 -49 -40 -53 -51 -48 -39 -50 -47 -38 -46 -37 -36 0
-41 -42 -43 -44 -45 -46 -47 -48 -49 -50 -51 -52 -53 -54 -55 0
-45 -44 -43 -42 -41 -55 -54 -52 -49 -53 -51 -48 -50 -47 -46 0
-41 -49 -48 -47 -46 -45 -44 -43 -42 -55 -54 -52 -53 -51 -50 0
-46 -47 -48 -49 -41 -50 -51 -52 -42 -53 -54 -43 -55 -44 -45 0
-46 -42 -52 -51 -50 -41 -49 -48 -47 -45 -44 -43 -55 -54 -53 0
-50 -51 -52 -42 -46 -53 -54 -43 -47 -55 -44 -48 -45 -49 -41 0
-50 -47 -43 -54 -53 -46 -42 -52 -51 -41 -49 -48 -45 -44 -55 0
-53 -54 -43 -47 -50 -55 -44 -48 -51 -45 -49 -52 -41 -42 -46 0
-53 -51 -48 -44 -55 -50 -47 -43 -54 -46 -42 -52 -41 -49 -45 0
-55 -44 -48 -51 -53 -45 -49 -52 -54 -41 -42 -43 -46 -47 -50 0
-45 -49 -52 -54 -55 -41 -42 -43 -44 -46 -47 -48 -50 -51 -53 0
-55 -54 -52 -49 -45 -53 -51 -48 -44 -50 -47 -43 -46 -42 -41 0
