c Theorem B raw encoding: (P3alt,Dih(3)) vs (K_7,Dih(7)), n=12; SAT expected (witness leg); regenerated 2026-08-13
p cnf 66 12408
2 12 0
1 12 0
12 2 0
1 2 0
12 1 0
2 1 0
3 13 0
1 13 0
13 3 0
1 3 0
13 1 0
3 1 0
4 14 0
1 14 0
14 4 0
1 4 0
14 1 0
4 1 0
5 15 0
1 15 0
15 5 0
1 5 0
15 1 0
5 1 0
6 16 0
1 16 0
16 6 0
1 6 0
16 1 0
6 1 0
7 17 0
1 17 0
17 7 0
1 7 0
17 1 0
7 1 0
8 18 0
1 18 0
18 8 0
1 8 0
18 1 0
8 1 0
9 19 0
1 19 0
19 9 0
1 9 0
19 1 0
9 1 0
10 20 0
1 20 0
20 10 0
1 10 0
20 1 0
10 1 0
11 21 0
1 21 0
21 11 0
1 11 0
21 1 0
11 1 0
3 22 0
2 22 0
22 3 0
2 3 0
22 2 0
3 2 0
4 23 0
2 23 0
23 4 0
2 4 0
23 2 0
4 2 0
5 24 0
2 24 0
24 5 0
2 5 0
24 2 0
5 2 0
6 25 0
2 25 0
25 6 0
2 6 0
25 2 0
6 2 0
7 26 0
2 26 0
26 7 0
2 7 0
26 2 0
7 2 0
8 27 0
2 27 0
27 8 0
2 8 0
27 2 0
8 2 0
9 28 0
2 28 0
28 9 0
2 9 0
28 2 0
9 2 0
10 29 0
2 29 0
29 10 0
2 10 0
29 2 0
10 2 0
11 30 0
2 30 0
30 11 0
2 11 0
30 2 0
11 2 0
4 31 0
3 31 0
31 4 0
3 4 0
31 3 0
4 3 0
5 32 0
3 32 0
32 5 0
3 5 0
32 3 0
5 3 0
6 33 0
3 33 0
33 6 0
3 6 0
33 3 0
6 3 0
7 34 0
3 34 0
34 7 0
3 7 0
34 3 0
7 3 0
8 35 0
3 35 0
35 8 0
3 8 0
35 3 0
8 3 0
9 36 0
3 36 0
36 9 0
3 9 0
36 3 0
9 3 0
10 37 0
3 37 0
37 10 0
3 10 0
37 3 0
10 3 0
11 38 0
3 38 0
38 11 0
3 11 0
38 3 0
11 3 0
5 39 0
4 39 0
39 5 0
4 5 0
39 4 0
5 4 0
6 40 0
4 40 0
40 6 0
4 6 0
40 4 0
6 4 0
7 41 0
4 41 0
41 7 0
4 7 0
41 4 0
7 4 0
8 42 0
4 42 0
42 8 0
4 8 0
42 4 0
8 4 0
9 43 0
4 43 0
43 9 0
4 9 0
43 4 0
9 4 0
10 44 0
4 44 0
44 10 0
4 10 0
44 4 0
10 4 0
11 45 0
4 45 0
45 11 0
4 11 0
45 4 0
11 4 0
6 46 0
5 46 0
46 6 0
5 6 0
46 5 0
6 5 0
7 47 0
5 47 0
47 7 0
5 7 0
47 5 0
7 5 0
8 48 0
5 48 0
48 8 0
5 8 0
48 5 0
8 5 0
9 49 0
5 49 0
49 9 0
5 9 0
49 5 0
9 5 0
10 50 0
5 50 0
50 10 0
5 10 0
50 5 0
10 5 0
11 51 0
5 51 0
51 11 0
5 11 0
51 5 0
11 5 0
7 52 0
6 52 0
52 7 0
6 7 0
52 6 0
7 6 0
8 53 0
6 53 0
53 8 0
6 8 0
53 6 0
8 6 0
9 54 0
6 54 0
54 9 0
6 9 0
54 6 0
9 6 0
10 55 0
6 55 0
55 10 0
6 10 0
55 6 0
10 6 0
11 56 0
6 56 0
56 11 0
6 11 0
56 6 0
11 6 0
8 57 0
7 57 0
57 8 0
7 8 0
57 7 0
8 7 0
9 58 0
7 58 0
58 9 0
7 9 0
58 7 0
9 7 0
10 59 0
7 59 0
59 10 0
7 10 0
59 7 0
10 7 0
11 60 0
7 60 0
60 11 0
7 11 0
60 7 0
11 7 0
9 61 0
8 61 0
61 9 0
8 9 0
61 8 0
9 8 0
10 62 0
8 62 0
62 10 0
8 10 0
62 8 0
10 8 0
11 63 0
8 63 0
63 11 0
8 11 0
63 8 0
11 8 0
10 64 0
9 64 0
64 10 0
9 10 0
64 9 0
10 9 0
11 65 0
9 65 0
65 11 0
9 11 0
65 9 0
11 9 0
11 66 0
10 66 0
66 11 0
10 11 0
66 10 0
11 10 0
13 22 0
12 22 0
22 13 0
12 13 0
22 12 0
13 12 0
14 23 0
12 23 0
23 14 0
12 14 0
23 12 0
14 12 0
15 24 0
12 24 0
24 15 0
12 15 0
24 12 0
15 12 0
16 25 0
12 25 0
25 16 0
12 16 0
25 12 0
16 12 0
17 26 0
12 26 0
26 17 0
12 17 0
26 12 0
17 12 0
18 27 0
12 27 0
27 18 0
12 18 0
27 12 0
18 12 0
19 28 0
12 28 0
28 19 0
12 19 0
28 12 0
19 12 0
20 29 0
12 29 0
29 20 0
12 20 0
29 12 0
20 12 0
21 30 0
12 30 0
30 21 0
12 21 0
30 12 0
21 12 0
14 31 0
13 31 0
31 14 0
13 14 0
31 13 0
14 13 0
15 32 0
13 32 0
32 15 0
13 15 0
32 13 0
15 13 0
16 33 0
13 33 0
33 16 0
13 16 0
33 13 0
16 13 0
17 34 0
13 34 0
34 17 0
13 17 0
34 13 0
17 13 0
18 35 0
13 35 0
35 18 0
13 18 0
35 13 0
18 13 0
19 36 0
13 36 0
36 19 0
13 19 0
36 13 0
19 13 0
20 37 0
13 37 0
37 20 0
13 20 0
37 13 0
20 13 0
21 38 0
13 38 0
38 21 0
13 21 0
38 13 0
21 13 0
15 39 0
14 39 0
39 15 0
14 15 0
39 14 0
15 14 0
16 40 0
14 40 0
40 16 0
14 16 0
40 14 0
16 14 0
17 41 0
14 41 0
41 17 0
14 17 0
41 14 0
17 14 0
18 42 0
14 42 0
42 18 0
14 18 0
42 14 0
18 14 0
19 43 0
14 43 0
43 19 0
14 19 0
43 14 0
19 14 0
20 44 0
14 44 0
44 20 0
14 20 0
44 14 0
20 14 0
21 45 0
14 45 0
45 21 0
14 21 0
45 14 0
21 14 0
16 46 0
15 46 0
46 16 0
15 16 0
46 15 0
16 15 0
17 47 0
15 47 0
47 17 0
15 17 0
47 15 0
17 15 0
18 48 0
15 48 0
48 18 0
15 18 0
48 15 0
18 15 0
19 49 0
15 49 0
49 19 0
15 19 0
49 15 0
19 15 0
20 50 0
15 50 0
50 20 0
15 20 0
50 15 0
20 15 0
21 51 0
15 51 0
51 21 0
15 21 0
51 15 0
21 15 0
17 52 0
16 52 0
52 17 0
16 17 0
52 16 0
17 16 0
18 53 0
16 53 0
53 18 0
16 18 0
53 16 0
18 16 0
19 54 0
16 54 0
54 19 0
16 19 0
54 16 0
19 16 0
20 55 0
16 55 0
55 20 0
16 20 0
55 16 0
20 16 0
21 56 0
16 56 0
56 21 0
16 21 0
56 16 0
21 16 0
18 57 0
17 57 0
57 18 0
17 18 0
57 17 0
18 17 0
19 58 0
17 58 0
58 19 0
17 19 0
58 17 0
19 17 0
20 59 0
17 59 0
59 20 0
17 20 0
59 17 0
20 17 0
21 60 0
17 60 0
60 21 0
17 21 0
60 17 0
21 17 0
19 61 0
18 61 0
61 19 0
18 19 0
61 18 0
19 18 0
20 62 0
18 62 0
62 20 0
18 20 0
62 18 0
20 18 0
21 63 0
18 63 0
63 21 0
18 21 0
63 18 0
21 18 0
20 64 0
19 64 0
64 20 0
19 20 0
64 19 0
20 19 0
21 65 0
19 65 0
65 21 0
19 21 0
65 19 0
21 19 0
21 66 0
20 66 0
66 21 0
20 21 0
66 20 0
21 20 0
23 31 0
22 31 0
31 23 0
22 23 0
31 22 0
23 22 0
24 32 0
22 32 0
32 24 0
22 24 0
32 22 0
24 22 0
25 33 0
22 33 0
33 25 0
22 25 0
33 22 0
25 22 0
26 34 0
22 34 0
34 26 0
22 26 0
34 22 0
26 22 0
27 35 0
22 35 0
35 27 0
22 27 0
35 22 0
27 22 0
28 36 0
22 36 0
36 28 0
22 28 0
36 22 0
28 22 0
29 37 0
22 37 0
37 29 0
22 29 0
37 22 0
29 22 0
30 38 0
22 38 0
38 30 0
22 30 0
38 22 0
30 22 0
24 39 0
23 39 0
39 24 0
23 24 0
39 23 0
24 23 0
25 40 0
23 40 0
40 25 0
23 25 0
40 23 0
25 23 0
26 41 0
23 41 0
41 26 0
23 26 0
41 23 0
26 23 0
27 42 0
23 42 0
42 27 0
23 27 0
42 23 0
27 23 0
28 43 0
23 43 0
43 28 0
23 28 0
43 23 0
28 23 0
29 44 0
23 44 0
44 29 0
23 29 0
44 23 0
29 23 0
30 45 0
23 45 0
45 30 0
23 30 0
45 23 0
30 23 0
25 46 0
24 46 0
46 25 0
24 25 0
46 24 0
25 24 0
26 47 0
24 47 0
47 26 0
24 26 0
47 24 0
26 24 0
27 48 0
24 48 0
48 27 0
24 27 0
48 24 0
27 24 0
28 49 0
24 49 0
49 28 0
24 28 0
49 24 0
28 24 0
29 50 0
24 50 0
50 29 0
24 29 0
50 24 0
29 24 0
30 51 0
24 51 0
51 30 0
24 30 0
51 24 0
30 24 0
26 52 0
25 52 0
52 26 0
25 26 0
52 25 0
26 25 0
27 53 0
25 53 0
53 27 0
25 27 0
53 25 0
27 25 0
28 54 0
25 54 0
54 28 0
25 28 0
54 25 0
28 25 0
29 55 0
25 55 0
55 29 0
25 29 0
55 25 0
29 25 0
30 56 0
25 56 0
56 30 0
25 30 0
56 25 0
30 25 0
27 57 0
26 57 0
57 27 0
26 27 0
57 26 0
27 26 0
28 58 0
26 58 0
58 28 0
26 28 0
58 26 0
28 26 0
29 59 0
26 59 0
59 29 0
26 29 0
59 26 0
29 26 0
30 60 0
26 60 0
60 30 0
26 30 0
60 26 0
30 26 0
28 61 0
27 61 0
61 28 0
27 28 0
61 27 0
28 27 0
29 62 0
27 62 0
62 29 0
27 29 0
62 27 0
29 27 0
30 63 0
27 63 0
63 30 0
27 30 0
63 27 0
30 27 0
29 64 0
28 64 0
64 29 0
28 29 0
64 28 0
29 28 0
30 65 0
28 65 0
65 30 0
28 30 0
65 28 0
30 28 0
30 66 0
29 66 0
66 30 0
29 30 0
66 29 0
30 29 0
32 39 0
31 39 0
39 32 0
31 32 0
39 31 0
32 31 0
33 40 0
31 40 0
40 33 0
31 33 0
40 31 0
33 31 0
34 41 0
31 41 0
41 34 0
31 34 0
41 31 0
34 31 0
35 42 0
31 42 0
42 35 0
31 35 0
42 31 0
35 31 0
36 43 0
31 43 0
43 36 0
31 36 0
43 31 0
36 31 0
37 44 0
31 44 0
44 37 0
31 37 0
44 31 0
37 31 0
38 45 0
31 45 0
45 38 0
31 38 0
45 31 0
38 31 0
33 46 0
32 46 0
46 33 0
32 33 0
46 32 0
33 32 0
34 47 0
32 47 0
47 34 0
32 34 0
47 32 0
34 32 0
35 48 0
32 48 0
48 35 0
32 35 0
48 32 0
35 32 0
36 49 0
32 49 0
49 36 0
32 36 0
49 32 0
36 32 0
37 50 0
32 50 0
50 37 0
32 37 0
50 32 0
37 32 0
38 51 0
32 51 0
51 38 0
32 38 0
51 32 0
38 32 0
34 52 0
33 52 0
52 34 0
33 34 0
52 33 0
34 33 0
35 53 0
33 53 0
53 35 0
33 35 0
53 33 0
35 33 0
36 54 0
33 54 0
54 36 0
33 36 0
54 33 0
36 33 0
37 55 0
33 55 0
55 37 0
33 37 0
55 33 0
37 33 0
38 56 0
33 56 0
56 38 0
33 38 0
56 33 0
38 33 0
35 57 0
34 57 0
57 35 0
34 35 0
57 34 0
35 34 0
36 58 0
34 58 0
58 36 0
34 36 0
58 34 0
36 34 0
37 59 0
34 59 0
59 37 0
34 37 0
59 34 0
37 34 0
38 60 0
34 60 0
60 38 0
34 38 0
60 34 0
38 34 0
36 61 0
35 61 0
61 36 0
35 36 0
61 35 0
36 35 0
37 62 0
35 62 0
62 37 0
35 37 0
62 35 0
37 35 0
38 63 0
35 63 0
63 38 0
35 38 0
63 35 0
38 35 0
37 64 0
36 64 0
64 37 0
36 37 0
64 36 0
37 36 0
38 65 0
36 65 0
65 38 0
36 38 0
65 36 0
38 36 0
38 66 0
37 66 0
66 38 0
37 38 0
66 37 0
38 37 0
40 46 0
39 46 0
46 40 0
39 40 0
46 39 0
40 39 0
41 47 0
39 47 0
47 41 0
39 41 0
47 39 0
41 39 0
42 48 0
39 48 0
48 42 0
39 42 0
48 39 0
42 39 0
43 49 0
39 49 0
49 43 0
39 43 0
49 39 0
43 39 0
44 50 0
39 50 0
50 44 0
39 44 0
50 39 0
44 39 0
45 51 0
39 51 0
51 45 0
39 45 0
51 39 0
45 39 0
41 52 0
40 52 0
52 41 0
40 41 0
52 40 0
41 40 0
42 53 0
40 53 0
53 42 0
40 42 0
53 40 0
42 40 0
43 54 0
40 54 0
54 43 0
40 43 0
54 40 0
43 40 0
44 55 0
40 55 0
55 44 0
40 44 0
55 40 0
44 40 0
45 56 0
40 56 0
56 45 0
40 45 0
56 40 0
45 40 0
42 57 0
41 57 0
57 42 0
41 42 0
57 41 0
42 41 0
43 58 0
41 58 0
58 43 0
41 43 0
58 41 0
43 41 0
44 59 0
41 59 0
59 44 0
41 44 0
59 41 0
44 41 0
45 60 0
41 60 0
60 45 0
41 45 0
60 41 0
45 41 0
43 61 0
42 61 0
61 43 0
42 43 0
61 42 0
43 42 0
44 62 0
42 62 0
62 44 0
42 44 0
62 42 0
44 42 0
45 63 0
42 63 0
63 45 0
42 45 0
63 42 0
45 42 0
44 64 0
43 64 0
64 44 0
43 44 0
64 43 0
44 43 0
45 65 0
43 65 0
65 45 0
43 45 0
65 43 0
45 43 0
45 66 0
44 66 0
66 45 0
44 45 0
66 44 0
45 44 0
47 52 0
46 52 0
52 47 0
46 47 0
52 46 0
47 46 0
48 53 0
46 53 0
53 48 0
46 48 0
53 46 0
48 46 0
49 54 0
46 54 0
54 49 0
46 49 0
54 46 0
49 46 0
50 55 0
46 55 0
55 50 0
46 50 0
55 46 0
50 46 0
51 56 0
46 56 0
56 51 0
46 51 0
56 46 0
51 46 0
48 57 0
47 57 0
57 48 0
47 48 0
57 47 0
48 47 0
49 58 0
47 58 0
58 49 0
47 49 0
58 47 0
49 47 0
50 59 0
47 59 0
59 50 0
47 50 0
59 47 0
50 47 0
51 60 0
47 60 0
60 51 0
47 51 0
60 47 0
51 47 0
49 61 0
48 61 0
61 49 0
48 49 0
61 48 0
49 48 0
50 62 0
48 62 0
62 50 0
48 50 0
62 48 0
50 48 0
51 63 0
48 63 0
63 51 0
48 51 0
63 48 0
51 48 0
50 64 0
49 64 0
64 50 0
49 50 0
64 49 0
50 49 0
51 65 0
49 65 0
65 51 0
49 51 0
65 49 0
51 49 0
51 66 0
50 66 0
66 51 0
50 51 0
66 50 0
51 50 0
53 57 0
52 57 0
57 53 0
52 53 0
57 52 0
53 52 0
54 58 0
52 58 0
58 54 0
52 54 0
58 52 0
54 52 0
55 59 0
52 59 0
59 55 0
52 55 0
59 52 0
55 52 0
56 60 0
52 60 0
60 56 0
52 56 0
60 52 0
56 52 0
54 61 0
53 61 0
61 54 0
53 54 0
61 53 0
54 53 0
55 62 0
53 62 0
62 55 0
53 55 0
62 53 0
55 53 0
56 63 0
53 63 0
63 56 0
53 56 0
63 53 0
56 53 0
55 64 0
54 64 0
64 55 0
54 55 0
64 54 0
55 54 0
56 65 0
54 65 0
65 56 0
54 56 0
65 54 0
56 54 0
56 66 0
55 66 0
66 56 0
55 56 0
66 55 0
56 55 0
58 61 0
57 61 0
61 58 0
57 58 0
61 57 0
58 57 0
59 62 0
57 62 0
62 59 0
57 59 0
62 57 0
59 57 0
60 63 0
57 63 0
63 60 0
57 60 0
63 57 0
60 57 0
59 64 0
58 64 0
64 59 0
58 59 0
64 58 0
59 58 0
60 65 0
58 65 0
65 60 0
58 60 0
65 58 0
60 58 0
60 66 0
59 66 0
66 60 0
59 60 0
66 59 0
60 59 0
62 64 0
61 64 0
64 62 0
61 62 0
64 61 0
62 61 0
63 65 0
61 65 0
65 63 0
61 63 0
65 61 0
63 61 0
63 66 0
62 66 0
66 63 0
62 63 0
66 62 0
63 62 0
65 66 0
64 66 0
66 65 0
64 65 0
66 64 0
65 64 0
-1 -2 -3 -4 -5 -6 -12 -13 -14 -15 -16 -22 -23 -24 -25 -31 -32 -33 -39 -40 -46 0
-6 -5 -4 -3 -2 -1 -46 -40 -33 -25 -16 -39 -32 -24 -15 -31 -23 -14 -22 -13 -12 0
-1 -16 -15 -14 -13 -12 -6 -5 -4 -3 -2 -46 -40 -33 -25 -39 -32 -24 -31 -23 -22 0
-12 -13 -14 -15 -16 -1 -22 -23 -24 -25 -2 -31 -32 -33 -3 -39 -40 -4 -46 -5 -6 0
-12 -2 -25 -24 -23 -22 -1 -16 -15 -14 -13 -6 -5 -4 -3 -46 -40 -33 -39 -32 -31 0
-22 -23 -24 -25 -2 -12 -31 -32 -33 -3 -13 -39 -40 -4 -14 -46 -5 -15 -6 -16 -1 0
-22 -13 -3 -33 -32 -31 -12 -2 -25 -24 -23 -1 -16 -15 -14 -6 -5 -4 -46 -40 -39 0
-31 -32 -33 -3 -13 -22 -39 -40 -4 -14 -23 -46 -5 -15 -24 -6 -16 -25 -1 -2 -12 0
-31 -23 -14 -4 -40 -39 -22 -13 -3 -33 -32 -12 -2 -25 -24 -1 -16 -15 -6 -5 -46 0
-39 -40 -4 -14 -23 -31 -46 -5 -15 -24 -32 -6 -16 -25 -33 -1 -2 -3 -12 -13 -22 0
-39 -32 -24 -15 -5 -46 -31 -23 -14 -4 -40 -22 -13 -3 -33 -12 -2 -25 -1 -16 -6 0
-46 -5 -15 -24 -32 -39 -6 -16 -25 -33 -40 -1 -2 -3 -4 -12 -13 -14 -22 -23 -31 0
-6 -16 -25 -33 -40 -46 -1 -2 -3 -4 -5 -12 -13 -14 -15 -22 -23 -24 -31 -32 -39 0
-46 -40 -33 -25 -16 -6 -39 -32 -24 -15 -5 -31 -23 -14 -4 -22 -13 -3 -12 -2 -1 0
-1 -2 -3 -4 -5 -7 -12 -13 -14 -15 -17 -22 -23 -24 -26 -31 -32 -34 -39 -41 -47 0
-7 -5 -4 -3 -2 -1 -47 -41 -34 -26 -17 -39 -32 -24 -15 -31 -23 -14 -22 -13 -12 0
-1 -17 -15 -14 -13 -12 -7 -5 -4 -3 -2 -47 -41 -34 -26 -39 -32 -24 -31 -23 -22 0
-12 -13 -14 -15 -17 -1 -22 -23 -24 -26 -2 -31 -32 -34 -3 -39 -41 -4 -47 -5 -7 0
-12 -2 -26 -24 -23 -22 -1 -17 -15 -14 -13 -7 -5 -4 -3 -47 -41 -34 -39 -32 -31 0
-22 -23 -24 -26 -2 -12 -31 -32 -34 -3 -13 -39 -41 -4 -14 -47 -5 -15 -7 -17 -1 0
-22 -13 -3 -34 -32 -31 -12 -2 -26 -24 -23 -1 -17 -15 -14 -7 -5 -4 -47 -41 -39 0
-31 -32 -34 -3 -13 -22 -39 -41 -4 -14 -23 -47 -5 -15 -24 -7 -17 -26 -1 -2 -12 0
-31 -23 -14 -4 -41 -39 -22 -13 -3 -34 -32 -12 -2 -26 -24 -1 -17 -15 -7 -5 -47 0
-39 -41 -4 -14 -23 -31 -47 -5 -15 -24 -32 -7 -17 -26 -34 -1 -2 -3 -12 -13 -22 0
-39 -32 -24 -15 -5 -47 -31 -23 -14 -4 -41 -22 -13 -3 -34 -12 -2 -26 -1 -17 -7 0
-47 -5 -15 -24 -32 -39 -7 -17 -26 -34 -41 -1 -2 -3 -4 -12 -13 -14 -22 -23 -31 0
-7 -17 -26 -34 -41 -47 -1 -2 -3 -4 -5 -12 -13 -14 -15 -22 -23 -24 -31 -32 -39 0
-47 -41 -34 -26 -17 -7 -39 -32 -24 -15 -5 -31 -23 -14 -4 -22 -13 -3 -12 -2 -1 0
-1 -2 -3 -4 -5 -8 -12 -13 -14 -15 -18 -22 -23 -24 -27 -31 -32 -35 -39 -42 -48 0
-8 -5 -4 -3 -2 -1 -48 -42 -35 -27 -18 -39 -32 -24 -15 -31 -23 -14 -22 -13 -12 0
-1 -18 -15 -14 -13 -12 -8 -5 -4 -3 -2 -48 -42 -35 -27 -39 -32 -24 -31 -23 -22 0
-12 -13 -14 -15 -18 -1 -22 -23 -24 -27 -2 -31 -32 -35 -3 -39 -42 -4 -48 -5 -8 0
-12 -2 -27 -24 -23 -22 -1 -18 -15 -14 -13 -8 -5 -4 -3 -48 -42 -35 -39 -32 -31 0
-22 -23 -24 -27 -2 -12 -31 -32 -35 -3 -13 -39 -42 -4 -14 -48 -5 -15 -8 -18 -1 0
-22 -13 -3 -35 -32 -31 -12 -2 -27 -24 -23 -1 -18 -15 -14 -8 -5 -4 -48 -42 -39 0
-31 -32 -35 -3 -13 -22 -39 -42 -4 -14 -23 -48 -5 -15 -24 -8 -18 -27 -1 -2 -12 0
-31 -23 -14 -4 -42 -39 -22 -13 -3 -35 -32 -12 -2 -27 -24 -1 -18 -15 -8 -5 -48 0
-39 -42 -4 -14 -23 -31 -48 -5 -15 -24 -32 -8 -18 -27 -35 -1 -2 -3 -12 -13 -22 0
-39 -32 -24 -15 -5 -48 -31 -23 -14 -4 -42 -22 -13 -3 -35 -12 -2 -27 -1 -18 -8 0
-48 -5 -15 -24 -32 -39 -8 -18 -27 -35 -42 -1 -2 -3 -4 -12 -13 -14 -22 -23 -31 0
-8 -18 -27 -35 -42 -48 -1 -2 -3 -4 -5 -12 -13 -14 -15 -22 -23 -24 -31 -32 -39 0
-48 -42 -35 -27 -18 -8 -39 -32 -24 -15 -5 -31 -23 -14 -4 -22 -13 -3 -12 -2 -1 0
-1 -2 -3 -4 -5 -9 -12 -13 -14 -15 -19 -22 -23 -24 -28 -31 -32 -36 -39 -43 -49 0
-9 -5 -4 -3 -2 -1 -49 -43 -36 -28 -19 -39 -32 -24 -15 -31 -23 -14 -22 -13 -12 0
-1 -19 -15 -14 -13 -12 -9 -5 -4 -3 -2 -49 -43 -36 -28 -39 -32 -24 -31 -23 -22 0
-12 -13 -14 -15 -19 -1 -22 -23 -24 -28 -2 -31 -32 -36 -3 -39 -43 -4 -49 -5 -9 0
-12 -2 -28 -24 -23 -22 -1 -19 -15 -14 -13 -9 -5 -4 -3 -49 -43 -36 -39 -32 -31 0
-22 -23 -24 -28 -2 -12 -31 -32 -36 -3 -13 -39 -43 -4 -14 -49 -5 -15 -9 -19 -1 0
-22 -13 -3 -36 -32 -31 -12 -2 -28 -24 -23 -1 -19 -15 -14 -9 -5 -4 -49 -43 -39 0
-31 -32 -36 -3 -13 -22 -39 -43 -4 -14 -23 -49 -5 -15 -24 -9 -19 -28 -1 -2 -12 0
-31 -23 -14 -4 -43 -39 -22 -13 -3 -36 -32 -12 -2 -28 -24 -1 -19 -15 -9 -5 -49 0
-39 -43 -4 -14 -23 -31 -49 -5 -15 -24 -32 -9 -19 -28 -36 -1 -2 -3 -12 -13 -22 0
-39 -32 -24 -15 -5 -49 -31 -23 -14 -4 -43 -22 -13 -3 -36 -12 -2 -28 -1 -19 -9 0
-49 -5 -15 -24 -32 -39 -9 -19 -28 -36 -43 -1 -2 -3 -4 -12 -13 -14 -22 -23 -31 0
-9 -19 -28 -36 -43 -49 -1 -2 -3 -4 -5 -12 -13 -14 -15 -22 -23 -24 -31 -32 -39 0
-49 -43 -36 -28 -19 -9 -39 -32 -24 -15 -5 -31 -23 -14 -4 -22 -13 -3 -12 -2 -1 0
-1 -2 -3 -4 -5 -10 -12 -13 -14 -15 -20 -22 -23 -24 -29 -31 -32 -37 -39 -44 -50 0
-10 -5 -4 -3 -2 -1 -50 -44 -37 -29 -20 -39 -32 -24 -15 -31 -23 -14 -22 -13 -12 0
-1 -20 -15 -14 -13 -12 -10 -5 -4 -3 -2 -50 -44 -37 -29 -39 -32 -24 -31 -23 -22 0
-12 -13 -14 -15 -20 -1 -22 -23 -24 -29 -2 -31 -32 -37 -3 -39 -44 -4 -50 -5 -10 0
-12 -2 -29 -24 -23 -22 -1 -20 -15 -14 -13 -10 -5 -4 -3 -50 -44 -37 -39 -32 -31 0
-22 -23 -24 -29 -2 -12 -31 -32 -37 -3 -13 -39 -44 -4 -14 -50 -5 -15 -10 -20 -1 0
-22 -13 -3 -37 -32 -31 -12 -2 -29 -24 -23 -1 -20 -15 -14 -10 -5 -4 -50 -44 -39 0
-31 -32 -37 -3 -13 -22 -39 -44 -4 -14 -23 -50 -5 -15 -24 -10 -20 -29 -1 -2 -12 0
-31 -23 -14 -4 -44 -39 -22 -13 -3 -37 -32 -12 -2 -29 -24 -1 -20 -15 -10 -5 -50 0
-39 -44 -4 -14 -23 -31 -50 -5 -15 -24 -32 -10 -20 -29 -37 -1 -2 -3 -12 -13 -22 0
-39 -32 -24 -15 -5 -50 -31 -23 -14 -4 -44 -22 -13 -3 -37 -12 -2 -29 -1 -20 -10 0
-50 -5 -15 -24 -32 -39 -10 -20 -29 -37 -44 -1 -2 -3 -4 -12 -13 -14 -22 -23 -31 0
-10 -20 -29 -37 -44 -50 -1 -2 -3 -4 -5 -12 -13 -14 -15 -22 -23 -24 -31 -32 -39 0
-50 -44 -37 -29 -20 -10 -39 -32 -24 -15 -5 -31 -23 -14 -4 -22 -13 -3 -12 -2 -1 0
-1 -2 -3 -4 -5 -11 -12 -13 -14 -15 -21 -22 -23 -24 -30 -31 -32 -38 -39 -45 -51 0
-11 -5 -4 -3 -2 -1 -51 -45 -38 -30 -21 -39 -32 -24 -15 -31 -23 -14 -22 -13 -12 0
-1 -21 -15 -14 -13 -12 -11 -5 -4 -3 -2 -51 -45 -38 -30 -39 -32 -24 -31 -23 -22 0
-12 -13 -14 -15 -21 -1 -22 -23 -24 -30 -2 -31 -32 -38 -3 -39 -45 -4 -51 -5 -11 0
-12 -2 -30 -24 -23 -22 -1 -21 -15 -14 -13 -11 -5 -4 -3 -51 -45 -38 -39 -32 -31 0
-22 -23 -24 -30 -2 -12 -31 -32 -38 -3 -13 -39 -45 -4 -14 -51 -5 -15 -11 -21 -1 0
-22 -13 -3 -38 -32 -31 -12 -2 -30 -24 -23 -1 -21 -15 -14 -11 -5 -4 -51 -45 -39 0
-31 -32 -38 -3 -13 -22 -39 -45 -4 -14 -23 -51 -5 -15 -24 -11 -21 -30 -1 -2 -12 0
-31 -23 -14 -4 -45 -39 -22 -13 -3 -38 -32 -12 -2 -30 -24 -1 -21 -15 -11 -5 -51 0
-39 -45 -4 -14 -23 -31 -51 -5 -15 -24 -32 -11 -21 -30 -38 -1 -2 -3 -12 -13 -22 0
-39 -32 -24 -15 -5 -51 -31 -23 -14 -4 -45 -22 -13 -3 -38 -12 -2 -30 -1 -21 -11 0
-51 -5 -15 -24 -32 -39 -11 -21 -30 -38 -45 -1 -2 -3 -4 -12 -13 -14 -22 -23 -31 0
-11 -21 -30 -38 -45 -51 -1 -2 -3 -4 -5 -12 -13 -14 -15 -22 -23 -24 -31 -32 -39 0
-51 -45 -38 -30 -21 -11 -39 -32 -24 -15 -5 -31 -23 -14 -4 -22 -13 -3 -12 -2 -1 0
-1 -2 -3 -4 -6 -7 -12 -13 -14 -16 -17 -22 -23 -25 -26 -31 -33 -34 -40 -41 -52 0
-7 -6 -4 -3 -2 -1 -52 -41 -34 -26 -17 -40 -33 -25 -16 -31 -23 -14 -22 -13 -12 0
-1 -17 -16 -14 -13 -12 -7 -6 -4 -3 -2 -52 -41 -34 -26 -40 -33 -25 -31 -23 -22 0
-12 -13 -14 -16 -17 -1 -22 -23 -25 -26 -2 -31 -33 -34 -3 -40 -41 -4 -52 -6 -7 0
-12 -2 -26 -25 -23 -22 -1 -17 -16 -14 -13 -7 -6 -4 -3 -52 -41 -34 -40 -33 -31 0
-22 -23 -25 -26 -2 -12 -31 -33 -34 -3 -13 -40 -41 -4 -14 -52 -6 -16 -7 -17 -1 0
-22 -13 -3 -34 -33 -31 -12 -2 -26 -25 -23 -1 -17 -16 -14 -7 -6 -4 -52 -41 -40 0
-31 -33 -34 -3 -13 -22 -40 -41 -4 -14 -23 -52 -6 -16 -25 -7 -17 -26 -1 -2 -12 0
-31 -23 -14 -4 -41 -40 -22 -13 -3 -34 -33 -12 -2 -26 -25 -1 -17 -16 -7 -6 -52 0
-40 -41 -4 -14 -23 -31 -52 -6 -16 -25 -33 -7 -17 -26 -34 -1 -2 -3 -12 -13 -22 0
-40 -33 -25 -16 -6 -52 -31 -23 -14 -4 -41 -22 -13 -3 -34 -12 -2 -26 -1 -17 -7 0
-52 -6 -16 -25 -33 -40 -7 -17 -26 -34 -41 -1 -2 -3 -4 -12 -13 -14 -22 -23 -31 0
-7 -17 -26 -34 -41 -52 -1 -2 -3 -4 -6 -12 -13 -14 -16 -22 -23 -25 -31 -33 -40 0
-52 -41 -34 -26 -17 -7 -40 -33 -25 -16 -6 -31 -23 -14 -4 -22 -13 -3 -12 -2 -1 0
-1 -2 -3 -4 -6 -8 -12 -13 -14 -16 -18 -22 -23 -25 -27 -31 -33 -35 -40 -42 -53 0
-8 -6 -4 -3 -2 -1 -53 -42 -35 -27 -18 -40 -33 -25 -16 -31 -23 -14 -22 -13 -12 0
-1 -18 -16 -14 -13 -12 -8 -6 -4 -3 -2 -53 -42 -35 -27 -40 -33 -25 -31 -23 -22 0
-12 -13 -14 -16 -18 -1 -22 -23 -25 -27 -2 -31 -33 -35 -3 -40 -42 -4 -53 -6 -8 0
-12 -2 -27 -25 -23 -22 -1 -18 -16 -14 -13 -8 -6 -4 -3 -53 -42 -35 -40 -33 -31 0
-22 -23 -25 -27 -2 -12 -31 -33 -35 -3 -13 -40 -42 -4 -14 -53 -6 -16 -8 -18 -1 0
-22 -13 -3 -35 -33 -31 -12 -2 -27 -25 -23 -1 -18 -16 -14 -8 -6 -4 -53 -42 -40 0
-31 -33 -35 -3 -13 -22 -40 -42 -4 -14 -23 -53 -6 -16 -25 -8 -18 -27 -1 -2 -12 0
-31 -23 -14 -4 -42 -40 -22 -13 -3 -35 -33 -12 -2 -27 -25 -1 -18 -16 -8 -6 -53 0
-40 -42 -4 -14 -23 -31 -53 -6 -16 -25 -33 -8 -18 -27 -35 -1 -2 -3 -12 -13 -22 0
-40 -33 -25 -16 -6 -53 -31 -23 -14 -4 -42 -22 -13 -3 -35 -12 -2 -27 -1 -18 -8 0
-53 -6 -16 -25 -33 -40 -8 -18 -27 -35 -42 -1 -2 -3 -4 -12 -13 -14 -22 -23 -31 0
-8 -18 -27 -35 -42 -53 -1 -2 -3 -4 -6 -12 -13 -14 -16 -22 -23 -25 -31 -33 -40 0
-53 -42 -35 -27 -18 -8 -40 -33 -25 -16 -6 -31 -23 -14 -4 -22 -13 -3 -12 -2 -1 0
-1 -2 -3 -4 -6 -9 -12 -13 -14 -16 -19 -22 -23 -25 -28 -31 -33 -36 -40 -43 -54 0
-9 -6 -4 -3 -2 -1 -54 -43 -36 -28 -19 -40 -33 -25 -16 -31 -23 -14 -22 -13 -12 0
-1 -19 -16 -14 -13 -12 -9 -6 -4 -3 -2 -54 -43 -36 -28 -40 -33 -25 -31 -23 -22 0
-12 -13 -14 -16 -19 -1 -22 -23 -25 -28 -2 -31 -33 -36 -3 -40 -43 -4 -54 -6 -9 0
-12 -2 -28 -25 -23 -22 -1 -19 -16 -14 -13 -9 -6 -4 -3 -54 -43 -36 -40 -33 -31 0
-22 -23 -25 -28 -2 -12 -31 -33 -36 -3 -13 -40 -43 -4 -14 -54 -6 -16 -9 -19 -1 0
-22 -13 -3 -36 -33 -31 -12 -2 -28 -25 -23 -1 -19 -16 -14 -9 -6 -4 -54 -43 -40 0
-31 -33 -36 -3 -13 -22 -40 -43 -4 -14 -23 -54 -6 -16 -25 -9 -19 -28 -1 -2 -12 0
-31 -23 -14 -4 -43 -40 -22 -13 -3 -36 -33 -12 -2 -28 -25 -1 -19 -16 -9 -6 -54 0
-40 -43 -4 -14 -23 -31 -54 -6 -16 -25 -33 -9 -19 -28 -36 -1 -2 -3 -12 -13 -22 0
-40 -33 -25 -16 -6 -54 -31 -23 -14 -4 -43 -22 -13 -3 -36 -12 -2 -28 -1 -19 -9 0
-54 -6 -16 -25 -33 -40 -9 -19 -28 -36 -43 -1 -2 -3 -4 -12 -13 -14 -22 -23 -31 0
-9 -19 -28 -36 -43 -54 -1 -2 -3 -4 -6 -12 -13 -14 -16 -22 -23 -25 -31 -33 -40 0
-54 -43 -36 -28 -19 -9 -40 -33 -25 -16 -6 -31 -23 -14 -4 -22 -13 -3 -12 -2 -1 0
-1 -2 -3 -4 -6 -10 -12 -13 -14 -16 -20 -22 -23 -25 -29 -31 -33 -37 -40 -44 -55 0
-10 -6 -4 -3 -2 -1 -55 -44 -37 -29 -20 -40 -33 -25 -16 -31 -23 -14 -22 -13 -12 0
-1 -20 -16 -14 -13 -12 -10 -6 -4 -3 -2 -55 -44 -37 -29 -40 -33 -25 -31 -23 -22 0
-12 -13 -14 -16 -20 -1 -22 -23 -25 -29 -2 -31 -33 -37 -3 -40 -44 -4 -55 -6 -10 0
-12 -2 -29 -25 -23 -22 -1 -20 -16 -14 -13 -10 -6 -4 -3 -55 -44 -37 -40 -33 -31 0
-22 -23 -25 -29 -2 -12 -31 -33 -37 -3 -13 -40 -44 -4 -14 -55 -6 -16 -10 -20 -1 0
-22 -13 -3 -37 -33 -31 -12 -2 -29 -25 -23 -1 -20 -16 -14 -10 -6 -4 -55 -44 -40 0
-31 -33 -37 -3 -13 -22 -40 -44 -4 -14 -23 -55 -6 -16 -25 -10 -20 -29 -1 -2 -12 0
-31 -23 -14 -4 -44 -40 -22 -13 -3 -37 -33 -12 -2 -29 -25 -1 -20 -16 -10 -6 -55 0
-40 -44 -4 -14 -23 -31 -55 -6 -16 -25 -33 -10 -20 -29 -37 -1 -2 -3 -12 -13 -22 0
-40 -33 -25 -16 -6 -55 -31 -23 -14 -4 -44 -22 -13 -3 -37 -12 -2 -29 -1 -20 -10 0
-55 -6 -16 -25 -33 -40 -10 -20 -29 -37 -44 -1 -2 -3 -4 -12 -13 -14 -22 -23 -31 0
-10 -20 -29 -37 -44 -55 -1 -2 -3 -4 -6 -12 -13 -14 -16 -22 -23 -25 -31 -33 -40 0
-55 -44 -37 -29 -20 -10 -40 -33 -25 -16 -6 -31 -23 -14 -4 -22 -13 -3 -12 -2 -1 0
-1 -2 -3 -4 -6 -11 -12 -13 -14 -16 -21 -22 -23 -25 -30 -31 -33 -38 -40 -45 -56 0
-11 -6 -4 -3 -2 -1 -56 -45 -38 -30 -21 -40 -33 -25 -16 -31 -23 -14 -22 -13 -12 0
-1 -21 -16 -14 -13 -12 -11 -6 -4 -3 -2 -56 -45 -38 -30 -40 -33 -25 -31 -23 -22 0
-12 -13 -14 -16 -21 -1 -22 -23 -25 -30 -2 -31 -33 -38 -3 -40 -45 -4 -56 -6 -11 0
-12 -2 -30 -25 -23 -22 -1 -21 -16 -14 -13 -11 -6 -4 -3 -56 -45 -38 -40 -33 -31 0
-22 -23 -25 -30 -2 -12 -31 -33 -38 -3 -13 -40 -45 -4 -14 -56 -6 -16 -11 -21 -1 0
-22 -13 -3 -38 -33 -31 -12 -2 -30 -25 -23 -1 -21 -16 -14 -11 -6 -4 -56 -45 -40 0
-31 -33 -38 -3 -13 -22 -40 -45 -4 -14 -23 -56 -6 -16 -25 -11 -21 -30 -1 -2 -12 0
-31 -23 -14 -4 -45 -40 -22 -13 -3 -38 -33 -12 -2 -30 -25 -1 -21 -16 -11 -6 -56 0
-40 -45 -4 -14 -23 -31 -56 -6 -16 -25 -33 -11 -21 -30 -38 -1 -2 -3 -12 -13 -22 0
-40 -33 -25 -16 -6 -56 -31 -23 -14 -4 -45 -22 -13 -3 -38 -12 -2 -30 -1 -21 -11 0
-56 -6 -16 -25 -33 -40 -11 -21 -30 -38 -45 -1 -2 -3 -4 -12 -13 -14 -22 -23 -31 0
-11 -21 -30 -38 -45 -56 -1 -2 -3 -4 -6 -12 -13 -14 -16 -22 -23 -25 -31 -33 -40 0
-56 -45 -38 -30 -21 -11 -40 -33 -25 -16 -6 -31 -23 -14 -4 -22 -13 -3 -12 -2 -1 0
-1 -2 -3 -4 -7 -8 -12 -13 -14 -17 -18 -22 -23 -26 -27 -31 -34 -35 -41 -42 -57 0
-8 -7 -4 -3 -2 -1 -57 -42 -35 -27 -18 -41 -34 -26 -17 -31 -23 -14 -22 -13 -12 0
-1 -18 -17 -14 -13 -12 -8 -7 -4 -3 -2 -57 -42 -35 -27 -41 -34 -26 -31 -23 -22 0
-12 -13 -14 -17 -18 -1 -22 -23 -26 -27 -2 -31 -34 -35 -3 -41 -42 -4 -57 -7 -8 0
-12 -2 -27 -26 -23 -22 -1 -18 -17 -14 -13 -8 -7 -4 -3 -57 -42 -35 -41 -34 -31 0
-22 -23 -26 -27 -2 -12 -31 -34 -35 -3 -13 -41 -42 -4 -14 -57 -7 -17 -8 -18 -1 0
-22 -13 -3 -35 -34 -31 -12 -2 -27 -26 -23 -1 -18 -17 -14 -8 -7 -4 -57 -42 -41 0
-31 -34 -35 -3 -13 -22 -41 -42 -4 -14 -23 -57 -7 -17 -26 -8 -18 -27 -1 -2 -12 0
-31 -23 -14 -4 -42 -41 -22 -13 -3 -35 -34 -12 -2 -27 -26 -1 -18 -17 -8 -7 -57 0
-41 -42 -4 -14 -23 -31 -57 -7 -17 -26 -34 -8 -18 -27 -35 -1 -2 -3 -12 -13 -22 0
-41 -34 -26 -17 -7 -57 -31 -23 -14 -4 -42 -22 -13 -3 -35 -12 -2 -27 -1 -18 -8 0
-57 -7 -17 -26 -34 -41 -8 -18 -27 -35 -42 -1 -2 -3 -4 -12 -13 -14 -22 -23 -31 0
-8 -18 -27 -35 -42 -57 -1 -2 -3 -4 -7 -12 -13 -14 -17 -22 -23 -26 -31 -34 -41 0
-57 -42 -35 -27 -18 -8 -41 -34 -26 -17 -7 -31 -23 -14 -4 -22 -13 -3 -12 -2 -1 0
-1 -2 -3 -4 -7 -9 -12 -13 -14 -17 -19 -22 -23 -26 -28 -31 -34 -36 -41 -43 -58 0
-9 -7 -4 -3 -2 -1 -58 -43 -36 -28 -19 -41 -34 -26 -17 -31 -23 -14 -22 -13 -12 0
-1 -19 -17 -14 -13 -12 -9 -7 -4 -3 -2 -58 -43 -36 -28 -41 -34 -26 -31 -23 -22 0
-12 -13 -14 -17 -19 -1 -22 -23 -26 -28 -2 -31 -34 -36 -3 -41 -43 -4 -58 -7 -9 0
-12 -2 -28 -26 -23 -22 -1 -19 -17 -14 -13 -9 -7 -4 -3 -58 -43 -36 -41 -34 -31 0
-22 -23 -26 -28 -2 -12 -31 -34 -36 -3 -13 -41 -43 -4 -14 -58 -7 -17 -9 -19 -1 0
-22 -13 -3 -36 -34 -31 -12 -2 -28 -26 -23 -1 -19 -17 -14 -9 -7 -4 -58 -43 -41 0
-31 -34 -36 -3 -13 -22 -41 -43 -4 -14 -23 -58 -7 -17 -26 -9 -19 -28 -1 -2 -12 0
-31 -23 -14 -4 -43 -41 -22 -13 -3 -36 -34 -12 -2 -28 -26 -1 -19 -17 -9 -7 -58 0
-41 -43 -4 -14 -23 -31 -58 -7 -17 -26 -34 -9 -19 -28 -36 -1 -2 -3 -12 -13 -22 0
-41 -34 -26 -17 -7 -58 -31 -23 -14 -4 -43 -22 -13 -3 -36 -12 -2 -28 -1 -19 -9 0
-58 -7 -17 -26 -34 -41 -9 -19 -28 -36 -43 -1 -2 -3 -4 -12 -13 -14 -22 -23 -31 0
-9 -19 -28 -36 -43 -58 -1 -2 -3 -4 -7 -12 -13 -14 -17 -22 -23 -26 -31 -34 -41 0
-58 -43 -36 -28 -19 -9 -41 -34 -26 -17 -7 -31 -23 -14 -4 -22 -13 -3 -12 -2 -1 0
-1 -2 -3 -4 -7 -10 -12 -13 -14 -17 -20 -22 -23 -26 -29 -31 -34 -37 -41 -44 -59 0
-10 -7 -4 -3 -2 -1 -59 -44 -37 -29 -20 -41 -34 -26 -17 -31 -23 -14 -22 -13 -12 0
-1 -20 -17 -14 -13 -12 -10 -7 -4 -3 -2 -59 -44 -37 -29 -41 -34 -26 -31 -23 -22 0
-12 -13 -14 -17 -20 -1 -22 -23 -26 -29 -2 -31 -34 -37 -3 -41 -44 -4 -59 -7 -10 0
-12 -2 -29 -26 -23 -22 -1 -20 -17 -14 -13 -10 -7 -4 -3 -59 -44 -37 -41 -34 -31 0
-22 -23 -26 -29 -2 -12 -31 -34 -37 -3 -13 -41 -44 -4 -14 -59 -7 -17 -10 -20 -1 0
-22 -13 -3 -37 -34 -31 -12 -2 -29 -26 -23 -1 -20 -17 -14 -10 -7 -4 -59 -44 -41 0
-31 -34 -37 -3 -13 -22 -41 -44 -4 -14 -23 -59 -7 -17 -26 -10 -20 -29 -1 -2 -12 0
-31 -23 -14 -4 -44 -41 -22 -13 -3 -37 -34 -12 -2 -29 -26 -1 -20 -17 -10 -7 -59 0
-41 -44 -4 -14 -23 -31 -59 -7 -17 -26 -34 -10 -20 -29 -37 -1 -2 -3 -12 -13 -22 0
-41 -34 -26 -17 -7 -59 -31 -23 -14 -4 -44 -22 -13 -3 -37 -12 -2 -29 -1 -20 -10 0
-59 -7 -17 -26 -34 -41 -10 -20 -29 -37 -44 -1 -2 -3 -4 -12 -13 -14 -22 -23 -31 0
-10 -20 -29 -37 -44 -59 -1 -2 -3 -4 -7 -12 -13 -14 -17 -22 -23 -26 -31 -34 -41 0
-59 -44 -37 -29 -20 -10 -41 -34 -26 -17 -7 -31 -23 -14 -4 -22 -13 -3 -12 -2 -1 0
-1 -2 -3 -4 -7 -11 -12 -13 -14 -17 -21 -22 -23 -26 -30 -31 -34 -38 -41 -45 -60 0
-11 -7 -4 -3 -2 -1 -60 -45 -38 -30 -21 -41 -34 -26 -17 -31 -23 -14 -22 -13 -12 0
-1 -21 -17 -14 -13 -12 -11 -7 -4 -3 -2 -60 -45 -38 -30 -41 -34 -26 -31 -23 -22 0
-12 -13 -14 -17 -21 -1 -22 -23 -26 -30 -2 -31 -34 -38 -3 -41 -45 -4 -60 -7 -11 0
-12 -2 -30 -26 -23 -22 -1 -21 -17 -14 -13 -11 -7 -4 -3 -60 -45 -38 -41 -34 -31 0
-22 -23 -26 -30 -2 -12 -31 -34 -38 -3 -13 -41 -45 -4 -14 -60 -7 -17 -11 -21 -1 0
-22 -13 -3 -38 -34 -31 -12 -2 -30 -26 -23 -1 -21 -17 -14 -11 -7 -4 -60 -45 -41 0
-31 -34 -38 -3 -13 -22 -41 -45 -4 -14 -23 -60 -7 -17 -26 -11 -21 -30 -1 -2 -12 0
-31 -23 -14 -4 -45 -41 -22 -13 -3 -38 -34 -12 -2 -30 -26 -1 -21 -17 -11 -7 -60 0
-41 -45 -4 -14 -23 -31 -60 -7 -17 -26 -34 -11 -21 -30 -38 -1 -2 -3 -12 -13 -22 0
-41 -34 -26 -17 -7 -60 -31 -23 -14 -4 -45 -22 -13 -3 -38 -12 -2 -30 -1 -21 -11 0
-60 -7 -17 -26 -34 -41 -11 -21 -30 -38 -45 -1 -2 -3 -4 -12 -13 -14 -22 -23 -31 0
-11 -21 -30 -38 -45 -60 -1 -2 -3 -4 -7 -12 -13 -14 -17 -22 -23 -26 -31 -34 -41 0
-60 -45 -38 -30 -21 -11 -41 -34 -26 -17 -7 -31 -23 -14 -4 -22 -13 -3 -12 -2 -1 0
-1 -2 -3 -4 -8 -9 -12 -13 -14 -18 -19 -22 -23 -27 -28 -31 -35 -36 -42 -43 -61 0
-9 -8 -4 -3 -2 -1 -61 -43 -36 -28 -19 -42 -35 -27 -18 -31 -23 -14 -22 -13 -12 0
-1 -19 -18 -14 -13 -12 -9 -8 -4 -3 -2 -61 -43 -36 -28 -42 -35 -27 -31 -23 -22 0
-12 -13 -14 -18 -19 -1 -22 -23 -27 -28 -2 -31 -35 -36 -3 -42 -43 -4 -61 -8 -9 0
-12 -2 -28 -27 -23 -22 -1 -19 -18 -14 -13 -9 -8 -4 -3 -61 -43 -36 -42 -35 -31 0
-22 -23 -27 -28 -2 -12 -31 -35 -36 -3 -13 -42 -43 -4 -14 -61 -8 -18 -9 -19 -1 0
-22 -13 -3 -36 -35 -31 -12 -2 -28 -27 -23 -1 -19 -18 -14 -9 -8 -4 -61 -43 -42 0
-31 -35 -36 -3 -13 -22 -42 -43 -4 -14 -23 -61 -8 -18 -27 -9 -19 -28 -1 -2 -12 0
-31 -23 -14 -4 -43 -42 -22 -13 -3 -36 -35 -12 -2 -28 -27 -1 -19 -18 -9 -8 -61 0
-42 -43 -4 -14 -23 -31 -61 -8 -18 -27 -35 -9 -19 -28 -36 -1 -2 -3 -12 -13 -22 0
-42 -35 -27 -18 -8 -61 -31 -23 -14 -4 -43 -22 -13 -3 -36 -12 -2 -28 -1 -19 -9 0
-61 -8 -18 -27 -35 -42 -9 -19 -28 -36 -43 -1 -2 -3 -4 -12 -13 -14 -22 -23 -31 0
-9 -19 -28 -36 -43 -61 -1 -2 -3 -4 -8 -12 -13 -14 -18 -22 -23 -27 -31 -35 -42 0
-61 -43 -36 -28 -19 -9 -42 -35 -27 -18 -8 -31 -23 -14 -4 -22 -13 -3 -12 -2 -1 0
-1 -2 -3 -4 -8 -10 -12 -13 -14 -18 -20 -22 -23 -27 -29 -31 -35 -37 -42 -44 -62 0
-10 -8 -4 -3 -2 -1 -62 -44 -37 -29 -20 -42 -35 -27 -18 -31 -23 -14 -22 -13 -12 0
-1 -20 -18 -14 -13 -12 -10 -8 -4 -3 -2 -62 -44 -37 -29 -42 -35 -27 -31 -23 -22 0
-12 -13 -14 -18 -20 -1 -22 -23 -27 -29 -2 -31 -35 -37 -3 -42 -44 -4 -62 -8 -10 0
-12 -2 -29 -27 -23 -22 -1 -20 -18 -14 -13 -10 -8 -4 -3 -62 -44 -37 -42 -35 -31 0
-22 -23 -27 -29 -2 -12 -31 -35 -37 -3 -13 -42 -44 -4 -14 -62 -8 -18 -10 -20 -1 0
-22 -13 -3 -37 -35 -31 -12 -2 -29 -27 -23 -1 -20 -18 -14 -10 -8 -4 -62 -44 -42 0
-31 -35 -37 -3 -13 -22 -42 -44 -4 -14 -23 -62 -8 -18 -27 -10 -20 -29 -1 -2 -12 0
-31 -23 -14 -4 -44 -42 -22 -13 -3 -37 -35 -12 -2 -29 -27 -1 -20 -18 -10 -8 -62 0
-42 -44 -4 -14 -23 -31 -62 -8 -18 -27 -35 -10 -20 -29 -37 -1 -2 -3 -12 -13 -22 0
-42 -35 -27 -18 -8 -62 -31 -23 -14 -4 -44 -22 -13 -3 -37 -12 -2 -29 -1 -20 -10 0
-62 -8 -18 -27 -35 -42 -10 -20 -29 -37 -44 -1 -2 -3 -4 -12 -13 -14 -22 -23 -31 0
-10 -20 -29 -37 -44 -62 -1 -2 -3 -4 -8 -12 -13 -14 -18 -22 -23 -27 -31 -35 -42 0
-62 -44 -37 -29 -20 -10 -42 -35 -27 -18 -8 -31 -23 -14 -4 -22 -13 -3 -12 -2 -1 0
-1 -2 -3 -4 -8 -11 -12 -13 -14 -18 -21 -22 -23 -27 -30 -31 -35 -38 -42 -45 -63 0
-11 -8 -4 -3 -2 -1 -63 -45 -38 -30 -21 -42 -35 -27 -18 -31 -23 -14 -22 -13 -12 0
-1 -21 -18 -14 -13 -12 -11 -8 -4 -3 -2 -63 -45 -38 -30 -42 -35 -27 -31 -23 -22 0
-12 -13 -14 -18 -21 -1 -22 -23 -27 -30 -2 -31 -35 -38 -3 -42 -45 -4 -63 -8 -11 0
-12 -2 -30 -27 -23 -22 -1 -21 -18 -14 -13 -11 -8 -4 -3 -63 -45 -38 -42 -35 -31 0
-22 -23 -27 -30 -2 -12 -31 -35 -38 -3 -13 -42 -45 -4 -14 -63 -8 -18 -11 -21 -1 0
-22 -13 -3 -38 -35 -31 -12 -2 -30 -27 -23 -1 -21 -18 -14 -11 -8 -4 -63 -45 -42 0
-31 -35 -38 -3 -13 -22 -42 -45 -4 -14 -23 -63 -8 -18 -27 -11 -21 -30 -1 -2 -12 0
-31 -23 -14 -4 -45 -42 -22 -13 -3 -38 -35 -12 -2 -30 -27 -1 -21 -18 -11 -8 -63 0
-42 -45 -4 -14 -23 -31 -63 -8 -18 -27 -35 -11 -21 -30 -38 -1 -2 -3 -12 -13 -22 0
-42 -35 -27 -18 -8 -63 -31 -23 -14 -4 -45 -22 -13 -3 -38 -12 -2 -30 -1 -21 -11 0
-63 -8 -18 -27 -35 -42 -11 -21 -30 -38 -45 -1 -2 -3 -4 -12 -13 -14 -22 -23 -31 0
-11 -21 -30 -38 -45 -63 -1 -2 -3 -4 -8 -12 -13 -14 -18 -22 -23 -27 -31 -35 -42 0
-63 -45 -38 -30 -21 -11 -42 -35 -27 -18 -8 -31 -23 -14 -4 -22 -13 -3 -12 -2 -1 0
-1 -2 -3 -4 -9 -10 -12 -13 -14 -19 -20 -22 -23 -28 -29 -31 -36 -37 -43 -44 -64 0
-10 -9 -4 -3 -2 -1 -64 -44 -37 -29 -20 -43 -36 -28 -19 -31 -23 -14 -22 -13 -12 0
-1 -20 -19 -14 -13 -12 -10 -9 -4 -3 -2 -64 -44 -37 -29 -43 -36 -28 -31 -23 -22 0
-12 -13 -14 -19 -20 -1 -22 -23 -28 -29 -2 -31 -36 -37 -3 -43 -44 -4 -64 -9 -10 0
-12 -2 -29 -28 -23 -22 -1 -20 -19 -14 -13 -10 -9 -4 -3 -64 -44 -37 -43 -36 -31 0
-22 -23 -28 -29 -2 -12 -31 -36 -37 -3 -13 -43 -44 -4 -14 -64 -9 -19 -10 -20 -1 0
-22 -13 -3 -37 -36 -31 -12 -2 -29 -28 -23 -1 -20 -19 -14 -10 -9 -4 -64 -44 -43 0
-31 -36 -37 -3 -13 -22 -43 -44 -4 -14 -23 -64 -9 -19 -28 -10 -20 -29 -1 -2 -12 0
-31 -23 -14 -4 -44 -43 -22 -13 -3 -37 -36 -12 -2 -29 -28 -1 -20 -19 -10 -9 -64 0
-43 -44 -4 -14 -23 -31 -64 -9 -19 -28 -36 -10 -20 -29 -37 -1 -2 -3 -12 -13 -22 0
-43 -36 -28 -19 -9 -64 -31 -23 -14 -4 -44 -22 -13 -3 -37 -12 -2 -29 -1 -20 -10 0
-64 -9 -19 -28 -36 -43 -10 -20 -29 -37 -44 -1 -2 -3 -4 -12 -13 -14 -22 -23 -31 0
-10 -20 -29 -37 -44 -64 -1 -2 -3 -4 -9 -12 -13 -14 -19 -22 -23 -28 -31 -36 -43 0
-64 -44 -37 -29 -20 -10 -43 -36 -28 -19 -9 -31 -23 -14 -4 -22 -13 -3 -12 -2 -1 0
-1 -2 -3 -4 -9 -11 -12 -13 -14 -19 -21 -22 -23 -28 -30 -31 -36 -38 -43 -45 -65 0
-11 -9 -4 -3 -2 -1 -65 -45 -38 -30 -21 -43 -36 -28 -19 -31 -23 -14 -22 -13 -12 0
-1 -21 -19 -14 -13 -12 -11 -9 -4 -3 -2 -65 -45 -38 -30 -43 -36 -28 -31 -23 -22 0
-12 -13 -14 -19 -21 -1 -22 -23 -28 -30 -2 -31 -36 -38 -3 -43 -45 -4 -65 -9 -11 0
-12 -2 -30 -28 -23 -22 -1 -21 -19 -14 -13 -11 -9 -4 -3 -65 -45 -38 -43 -36 -31 0
-22 -23 -28 -30 -2 -12 -31 -36 -38 -3 -13 -43 -45 -4 -14 -65 -9 -19 -11 -21 -1 0
-22 -13 -3 -38 -36 -31 -12 -2 -30 -28 -23 -1 -21 -19 -14 -11 -9 -4 -65 -45 -43 0
-31 -36 -38 -3 -13 -22 -43 -45 -4 -14 -23 -65 -9 -19 -28 -11 -21 -30 -1 -2 -12 0
-31 -23 -14 -4 -45 -43 -22 -13 -3 -38 -36 -12 -2 -30 -28 -1 -21 -19 -11 -9 -65 0
-43 -45 -4 -14 -23 -31 -65 -9 -19 -28 -36 -11 -21 -30 -38 -1 -2 -3 -12 -13 -22 0
-43 -36 -28 -19 -9 -65 -31 -23 -14 -4 -45 -22 -13 -3 -38 -12 -2 -30 -1 -21 -11 0
-65 -9 -19 -28 -36 -43 -11 -21 -30 -38 -45 -1 -2 -3 -4 -12 -13 -14 -22 -23 -31 0
-11 -21 -30 -38 -45 -65 -1 -2 -3 -4 -9 -12 -13 -14 -19 -22 -23 -28 -31 -36 -43 0
-65 -45 -38 -30 -21 -11 -43 -36 -28 -19 -9 -31 -23 -14 -4 -22 -13 -3 -12 -2 -1 0
-1 -2 -3 -4 -10 -11 -12 -13 -14 -20 -21 -22 -23 -29 -30 -31 -37 -38 -44 -45 -66 0
-11 -10 -4 -3 -2 -1 -66 -45 -38 -30 -21 -44 -37 -29 -20 -31 -23 -14 -22 -13 -12 0
-1 -21 -20 -14 -13 -12 -11 -10 -4 -3 -2 -66 -45 -38 -30 -44 -37 -29 -31 -23 -22 0
-12 -13 -14 -20 -21 -1 -22 -23 -29 -30 -2 -31 -37 -38 -3 -44 -45 -4 -66 -10 -11 0
-12 -2 -30 -29 -23 -22 -1 -21 -20 -14 -13 -11 -10 -4 -3 -66 -45 -38 -44 -37 -31 0
-22 -23 -29 -30 -2 -12 -31 -37 -38 -3 -13 -44 -45 -4 -14 -66 -10 -20 -11 -21 -1 0
-22 -13 -3 -38 -37 -31 -12 -2 -30 -29 -23 -1 -21 -20 -14 -11 -10 -4 -66 -45 -44 0
-31 -37 -38 -3 -13 -22 -44 -45 -4 -14 -23 -66 -10 -20 -29 -11 -21 -30 -1 -2 -12 0
-31 -23 -14 -4 -45 -44 -22 -13 -3 -38 -37 -12 -2 -30 -29 -1 -21 -20 -11 -10 -66 0
-44 -45 -4 -14 -23 -31 -66 -10 -20 -29 -37 -11 -21 -30 -38 -1 -2 -3 -12 -13 -22 0
-44 -37 -29 -20 -10 -66 -31 -23 -14 -4 -45 -22 -13 -3 -38 -12 -2 -30 -1 -21 -11 0
-66 -10 -20 -29 -37 -44 -11 -21 -30 -38 -45 -1 -2 -3 -4 -12 -13 -14 -22 -23 -31 0
-11 -21 -30 -38 -45 -66 -1 -2 -3 -4 -10 -12 -13 -14 -20 -22 -23 -29 -31 -37 -44 0
-66 -45 -38 -30 -21 -11 -44 -37 -29 -20 -10 -31 -23 -14 -4 -22 -13 -3 -12 -2 -1 0
-1 -2 -3 -5 -6 -7 -12 -13 -15 -16 -17 -22 -24 -25 -26 -32 -33 -34 -46 -47 -52 0
-7 -6 -5 -3 -2 -1 -52 -47 -34 -26 -17 -46 -33 -25 -16 -32 -24 -15 -22 -13 -12 0
-1 -17 -16 -15 -13 -12 -7 -6 -5 -3 -2 -52 -47 -34 -26 -46 -33 -25 -32 -24 -22 0
-12 -13 -15 -16 -17 -1 -22 -24 -25 -26 -2 -32 -33 -34 -3 -46 -47 -5 -52 -6 -7 0
-12 -2 -26 -25 -24 -22 -1 -17 -16 -15 -13 -7 -6 -5 -3 -52 -47 -34 -46 -33 -32 0
-22 -24 -25 -26 -2 -12 -32 -33 -34 -3 -13 -46 -47 -5 -15 -52 -6 -16 -7 -17 -1 0
-22 -13 -3 -34 -33 -32 -12 -2 -26 -25 -24 -1 -17 -16 -15 -7 -6 -5 -52 -47 -46 0
-32 -33 -34 -3 -13 -22 -46 -47 -5 -15 -24 -52 -6 -16 -25 -7 -17 -26 -1 -2 -12 0
-32 -24 -15 -5 -47 -46 -22 -13 -3 -34 -33 -12 -2 -26 -25 -1 -17 -16 -7 -6 -52 0
-46 -47 -5 -15 -24 -32 -52 -6 -16 -25 -33 -7 -17 -26 -34 -1 -2 -3 -12 -13 -22 0
-46 -33 -25 -16 -6 -52 -32 -24 -15 -5 -47 -22 -13 -3 -34 -12 -2 -26 -1 -17 -7 0
-52 -6 -16 -25 -33 -46 -7 -17 -26 -34 -47 -1 -2 -3 -5 -12 -13 -15 -22 -24 -32 0
-7 -17 -26 -34 -47 -52 -1 -2 -3 -5 -6 -12 -13 -15 -16 -22 -24 -25 -32 -33 -46 0
-52 -47 -34 -26 -17 -7 -46 -33 -25 -16 -6 -32 -24 -15 -5 -22 -13 -3 -12 -2 -1 0
-1 -2 -3 -5 -6 -8 -12 -13 -15 -16 -18 -22 -24 -25 -27 -32 -33 -35 -46 -48 -53 0
-8 -6 -5 -3 -2 -1 -53 -48 -35 -27 -18 -46 -33 -25 -16 -32 -24 -15 -22 -13 -12 0
-1 -18 -16 -15 -13 -12 -8 -6 -5 -3 -2 -53 -48 -35 -27 -46 -33 -25 -32 -24 -22 0
-12 -13 -15 -16 -18 -1 -22 -24 -25 -27 -2 -32 -33 -35 -3 -46 -48 -5 -53 -6 -8 0
-12 -2 -27 -25 -24 -22 -1 -18 -16 -15 -13 -8 -6 -5 -3 -53 -48 -35 -46 -33 -32 0
-22 -24 -25 -27 -2 -12 -32 -33 -35 -3 -13 -46 -48 -5 -15 -53 -6 -16 -8 -18 -1 0
-22 -13 -3 -35 -33 -32 -12 -2 -27 -25 -24 -1 -18 -16 -15 -8 -6 -5 -53 -48 -46 0
-32 -33 -35 -3 -13 -22 -46 -48 -5 -15 -24 -53 -6 -16 -25 -8 -18 -27 -1 -2 -12 0
-32 -24 -15 -5 -48 -46 -22 -13 -3 -35 -33 -12 -2 -27 -25 -1 -18 -16 -8 -6 -53 0
-46 -48 -5 -15 -24 -32 -53 -6 -16 -25 -33 -8 -18 -27 -35 -1 -2 -3 -12 -13 -22 0
-46 -33 -25 -16 -6 -53 -32 -24 -15 -5 -48 -22 -13 -3 -35 -12 -2 -27 -1 -18 -8 0
-53 -6 -16 -25 -33 -46 -8 -18 -27 -35 -48 -1 -2 -3 -5 -12 -13 -15 -22 -24 -32 0
-8 -18 -27 -35 -48 -53 -1 -2 -3 -5 -6 -12 -13 -15 -16 -22 -24 -25 -32 -33 -46 0
-53 -48 -35 -27 -18 -8 -46 -33 -25 -16 -6 -32 -24 -15 -5 -22 -13 -3 -12 -2 -1 0
-1 -2 -3 -5 -6 -9 -12 -13 -15 -16 -19 -22 -24 -25 -28 -32 -33 -36 -46 -49 -54 0
-9 -6 -5 -3 -2 -1 -54 -49 -36 -28 -19 -46 -33 -25 -16 -32 -24 -15 -22 -13 -12 0
-1 -19 -16 -15 -13 -12 -9 -6 -5 -3 -2 -54 -49 -36 -28 -46 -33 -25 -32 -24 -22 0
-12 -13 -15 -16 -19 -1 -22 -24 -25 -28 -2 -32 -33 -36 -3 -46 -49 -5 -54 -6 -9 0
-12 -2 -28 -25 -24 -22 -1 -19 -16 -15 -13 -9 -6 -5 -3 -54 -49 -36 -46 -33 -32 0
-22 -24 -25 -28 -2 -12 -32 -33 -36 -3 -13 -46 -49 -5 -15 -54 -6 -16 -9 -19 -1 0
-22 -13 -3 -36 -33 -32 -12 -2 -28 -25 -24 -1 -19 -16 -15 -9 -6 -5 -54 -49 -46 0
-32 -33 -36 -3 -13 -22 -46 -49 -5 -15 -24 -54 -6 -16 -25 -9 -19 -28 -1 -2 -12 0
-32 -24 -15 -5 -49 -46 -22 -13 -3 -36 -33 -12 -2 -28 -25 -1 -19 -16 -9 -6 -54 0
-46 -49 -5 -15 -24 -32 -54 -6 -16 -25 -33 -9 -19 -28 -36 -1 -2 -3 -12 -13 -22 0
-46 -33 -25 -16 -6 -54 -32 -24 -15 -5 -49 -22 -13 -3 -36 -12 -2 -28 -1 -19 -9 0
-54 -6 -16 -25 -33 -46 -9 -19 -28 -36 -49 -1 -2 -3 -5 -12 -13 -15 -22 -24 -32 0
-9 -19 -28 -36 -49 -54 -1 -2 -3 -5 -6 -12 -13 -15 -16 -22 -24 -25 -32 -33 -46 0
-54 -49 -36 -28 -19 -9 -46 -33 -25 -16 -6 -32 -24 -15 -5 -22 -13 -3 -12 -2 -1 0
-1 -2 -3 -5 -6 -10 -12 -13 -15 -16 -20 -22 -24 -25 -29 -32 -33 -37 -46 -50 -55 0
-10 -6 -5 -3 -2 -1 -55 -50 -37 -29 -20 -46 -33 -25 -16 -32 -24 -15 -22 -13 -12 0
-1 -20 -16 -15 -13 -12 -10 -6 -5 -3 -2 -55 -50 -37 -29 -46 -33 -25 -32 -24 -22 0
-12 -13 -15 -16 -20 -1 -22 -24 -25 -29 -2 -32 -33 -37 -3 -46 -50 -5 -55 -6 -10 0
-12 -2 -29 -25 -24 -22 -1 -20 -16 -15 -13 -10 -6 -5 -3 -55 -50 -37 -46 -33 -32 0
-22 -24 -25 -29 -2 -12 -32 -33 -37 -3 -13 -46 -50 -5 -15 -55 -6 -16 -10 -20 -1 0
-22 -13 -3 -37 -33 -32 -12 -2 -29 -25 -24 -1 -20 -16 -15 -10 -6 -5 -55 -50 -46 0
-32 -33 -37 -3 -13 -22 -46 -50 -5 -15 -24 -55 -6 -16 -25 -10 -20 -29 -1 -2 -12 0
-32 -24 -15 -5 -50 -46 -22 -13 -3 -37 -33 -12 -2 -29 -25 -1 -20 -16 -10 -6 -55 0
-46 -50 -5 -15 -24 -32 -55 -6 -16 -25 -33 -10 -20 -29 -37 -1 -2 -3 -12 -13 -22 0
-46 -33 -25 -16 -6 -55 -32 -24 -15 -5 -50 -22 -13 -3 -37 -12 -2 -29 -1 -20 -10 0
-55 -6 -16 -25 -33 -46 -10 -20 -29 -37 -50 -1 -2 -3 -5 -12 -13 -15 -22 -24 -32 0
-10 -20 -29 -37 -50 -55 -1 -2 -3 -5 -6 -12 -13 -15 -16 -22 -24 -25 -32 -33 -46 0
-55 -50 -37 -29 -20 -10 -46 -33 -25 -16 -6 -32 -24 -15 -5 -22 -13 -3 -12 -2 -1 0
-1 -2 -3 -5 -6 -11 -12 -13 -15 -16 -21 -22 -24 -25 -30 -32 -33 -38 -46 -51 -56 0
-11 -6 -5 -3 -2 -1 -56 -51 -38 -30 -21 -46 -33 -25 -16 -32 -24 -15 -22 -13 -12 0
-1 -21 -16 -15 -13 -12 -11 -6 -5 -3 -2 -56 -51 -38 -30 -46 -33 -25 -32 -24 -22 0
-12 -13 -15 -16 -21 -1 -22 -24 -25 -30 -2 -32 -33 -38 -3 -46 -51 -5 -56 -6 -11 0
-12 -2 -30 -25 -24 -22 -1 -21 -16 -15 -13 -11 -6 -5 -3 -56 -51 -38 -46 -33 -32 0
-22 -24 -25 -30 -2 -12 -32 -33 -38 -3 -13 -46 -51 -5 -15 -56 -6 -16 -11 -21 -1 0
-22 -13 -3 -38 -33 -32 -12 -2 -30 -25 -24 -1 -21 -16 -15 -11 -6 -5 -56 -51 -46 0
-32 -33 -38 -3 -13 -22 -46 -51 -5 -15 -24 -56 -6 -16 -25 -11 -21 -30 -1 -2 -12 0
-32 -24 -15 -5 -51 -46 -22 -13 -3 -38 -33 -12 -2 -30 -25 -1 -21 -16 -11 -6 -56 0
-46 -51 -5 -15 -24 -32 -56 -6 -16 -25 -33 -11 -21 -30 -38 -1 -2 -3 -12 -13 -22 0
-46 -33 -25 -16 -6 -56 -32 -24 -15 -5 -51 -22 -13 -3 -38 -12 -2 -30 -1 -21 -11 0
-56 -6 -16 -25 -33 -46 -11 -21 -30 -38 -51 -1 -2 -3 -5 -12 -13 -15 -22 -24 -32 0
-11 -21 -30 -38 -51 -56 -1 -2 -3 -5 -6 -12 -13 -15 -16 -22 -24 -25 -32 -33 -46 0
-56 -51 -38 -30 -21 -11 -46 -33 -25 -16 -6 -32 -24 -15 -5 -22 -13 -3 -12 -2 -1 0
-1 -2 -3 -5 -7 -8 -12 -13 -15 -17 -18 -22 -24 -26 -27 -32 -34 -35 -47 -48 -57 0
-8 -7 -5 -3 -2 -1 -57 -48 -35 -27 -18 -47 -34 -26 -17 -32 -24 -15 -22 -13 -12 0
-1 -18 -17 -15 -13 -12 -8 -7 -5 -3 -2 -57 -48 -35 -27 -47 -34 -26 -32 -24 -22 0
-12 -13 -15 -17 -18 -1 -22 -24 -26 -27 -2 -32 -34 -35 -3 -47 -48 -5 -57 -7 -8 0
-12 -2 -27 -26 -24 -22 -1 -18 -17 -15 -13 -8 -7 -5 -3 -57 -48 -35 -47 -34 -32 0
-22 -24 -26 -27 -2 -12 -32 -34 -35 -3 -13 -47 -48 -5 -15 -57 -7 -17 -8 -18 -1 0
-22 -13 -3 -35 -34 -32 -12 -2 -27 -26 -24 -1 -18 -17 -15 -8 -7 -5 -57 -48 -47 0
-32 -34 -35 -3 -13 -22 -47 -48 -5 -15 -24 -57 -7 -17 -26 -8 -18 -27 -1 -2 -12 0
-32 -24 -15 -5 -48 -47 -22 -13 -3 -35 -34 -12 -2 -27 -26 -1 -18 -17 -8 -7 -57 0
-47 -48 -5 -15 -24 -32 -57 -7 -17 -26 -34 -8 -18 -27 -35 -1 -2 -3 -12 -13 -22 0
-47 -34 -26 -17 -7 -57 -32 -24 -15 -5 -48 -22 -13 -3 -35 -12 -2 -27 -1 -18 -8 0
-57 -7 -17 -26 -34 -47 -8 -18 -27 -35 -48 -1 -2 -3 -5 -12 -13 -15 -22 -24 -32 0
-8 -18 -27 -35 -48 -57 -1 -2 -3 -5 -7 -12 -13 -15 -17 -22 -24 -26 -32 -34 -47 0
-57 -48 -35 -27 -18 -8 -47 -34 -26 -17 -7 -32 -24 -15 -5 -22 -13 -3 -12 -2 -1 0
-1 -2 -3 -5 -7 -9 -12 -13 -15 -17 -19 -22 -24 -26 -28 -32 -34 -36 -47 -49 -58 0
-9 -7 -5 -3 -2 -1 -58 -49 -36 -28 -19 -47 -34 -26 -17 -32 -24 -15 -22 -13 -12 0
-1 -19 -17 -15 -13 -12 -9 -7 -5 -3 -2 -58 -49 -36 -28 -47 -34 -26 -32 -24 -22 0
-12 -13 -15 -17 -19 -1 -22 -24 -26 -28 -2 -32 -34 -36 -3 -47 -49 -5 -58 -7 -9 0
-12 -2 -28 -26 -24 -22 -1 -19 -17 -15 -13 -9 -7 -5 -3 -58 -49 -36 -47 -34 -32 0
-22 -24 -26 -28 -2 -12 -32 -34 -36 -3 -13 -47 -49 -5 -15 -58 -7 -17 -9 -19 -1 0
-22 -13 -3 -36 -34 -32 -12 -2 -28 -26 -24 -1 -19 -17 -15 -9 -7 -5 -58 -49 -47 0
-32 -34 -36 -3 -13 -22 -47 -49 -5 -15 -24 -58 -7 -17 -26 -9 -19 -28 -1 -2 -12 0
-32 -24 -15 -5 -49 -47 -22 -13 -3 -36 -34 -12 -2 -28 -26 -1 -19 -17 -9 -7 -58 0
-47 -49 -5 -15 -24 -32 -58 -7 -17 -26 -34 -9 -19 -28 -36 -1 -2 -3 -12 -13 -22 0
-47 -34 -26 -17 -7 -58 -32 -24 -15 -5 -49 -22 -13 -3 -36 -12 -2 -28 -1 -19 -9 0
-58 -7 -17 -26 -34 -47 -9 -19 -28 -36 -49 -1 -2 -3 -5 -12 -13 -15 -22 -24 -32 0
-9 -19 -28 -36 -49 -58 -1 -2 -3 -5 -7 -12 -13 -15 -17 -22 -24 -26 -32 -34 -47 0
-58 -49 -36 -28 -19 -9 -47 -34 -26 -17 -7 -32 -24 -15 -5 -22 -13 -3 -12 -2 -1 0
-1 -2 -3 -5 -7 -10 -12 -13 -15 -17 -20 -22 -24 -26 -29 -32 -34 -37 -47 -50 -59 0
-10 -7 -5 -3 -2 -1 -59 -50 -37 -29 -20 -47 -34 -26 -17 -32 -24 -15 -22 -13 -12 0
-1 -20 -17 -15 -13 -12 -10 -7 -5 -3 -2 -59 -50 -37 -29 -47 -34 -26 -32 -24 -22 0
-12 -13 -15 -17 -20 -1 -22 -24 -26 -29 -2 -32 -34 -37 -3 -47 -50 -5 -59 -7 -10 0
-12 -2 -29 -26 -24 -22 -1 -20 -17 -15 -13 -10 -7 -5 -3 -59 -50 -37 -47 -34 -32 0
-22 -24 -26 -29 -2 -12 -32 -34 -37 -3 -13 -47 -50 -5 -15 -59 -7 -17 -10 -20 -1 0
-22 -13 -3 -37 -34 -32 -12 -2 -29 -26 -24 -1 -20 -17 -15 -10 -7 -5 -59 -50 -47 0
-32 -34 -37 -3 -13 -22 -47 -50 -5 -15 -24 -59 -7 -17 -26 -10 -20 -29 -1 -2 -12 0
-32 -24 -15 -5 -50 -47 -22 -13 -3 -37 -34 -12 -2 -29 -26 -1 -20 -17 -10 -7 -59 0
-47 -50 -5 -15 -24 -32 -59 -7 -17 -26 -34 -10 -20 -29 -37 -1 -2 -3 -12 -13 -22 0
-47 -34 -26 -17 -7 -59 -32 -24 -15 -5 -50 -22 -13 -3 -37 -12 -2 -29 -1 -20 -10 0
-59 -7 -17 -26 -34 -47 -10 -20 -29 -37 -50 -1 -2 -3 -5 -12 -13 -15 -22 -24 -32 0
-10 -20 -29 -37 -50 -59 -1 -2 -3 -5 -7 -12 -13 -15 -17 -22 -24 -26 -32 -34 -47 0
-59 -50 -37 -29 -20 -10 -47 -34 -26 -17 -7 -32 -24 -15 -5 -22 -13 -3 -12 -2 -1 0
-1 -2 -3 -5 -7 -11 -12 -13 -15 -17 -21 -22 -24 -26 -30 -32 -34 -38 -47 -51 -60 0
-11 -7 -5 -3 -2 -1 -60 -51 -38 -30 -21 -47 -34 -26 -17 -32 -24 -15 -22 -13 -12 0
-1 -21 -17 -15 -13 -12 -11 -7 -5 -3 -2 -60 -51 -38 -30 -47 -34 -26 -32 -24 -22 0
-12 -13 -15 -17 -21 -1 -22 -24 -26 -30 -2 -32 -34 -38 -3 -47 -51 -5 -60 -7 -11 0
-12 -2 -30 -26 -24 -22 -1 -21 -17 -15 -13 -11 -7 -5 -3 -60 -51 -38 -47 -34 -32 0
-22 -24 -26 -30 -2 -12 -32 -34 -38 -3 -13 -47 -51 -5 -15 -60 -7 -17 -11 -21 -1 0
-22 -13 -3 -38 -34 -32 -12 -2 -30 -26 -24 -1 -21 -17 -15 -11 -7 -5 -60 -51 -47 0
-32 -34 -38 -3 -13 -22 -47 -51 -5 -15 -24 -60 -7 -17 -26 -11 -21 -30 -1 -2 -12 0
-32 -24 -15 -5 -51 -47 -22 -13 -3 -38 -34 -12 -2 -30 -26 -1 -21 -17 -11 -7 -60 0
-47 -51 -5 -15 -24 -32 -60 -7 -17 -26 -34 -11 -21 -30 -38 -1 -2 -3 -12 -13 -22 0
-47 -34 -26 -17 -7 -60 -32 -24 -15 -5 -51 -22 -13 -3 -38 -12 -2 -30 -1 -21 -11 0
-60 -7 -17 -26 -34 -47 -11 -21 -30 -38 -51 -1 -2 -3 -5 -12 -13 -15 -22 -24 -32 0
-11 -21 -30 -38 -51 -60 -1 -2 -3 -5 -7 -12 -13 -15 -17 -22 -24 -26 -32 -34 -47 0
-60 -51 -38 -30 -21 -11 -47 -34 -26 -17 -7 -32 -24 -15 -5 -22 -13 -3 -12 -2 -1 0
-1 -2 -3 -5 -8 -9 -12 -13 -15 -18 -19 -22 -24 -27 -28 -32 -35 -36 -48 -49 -61 0
-9 -8 -5 -3 -2 -1 -61 -49 -36 -28 -19 -48 -35 -27 -18 -32 -24 -15 -22 -13 -12 0
-1 -19 -18 -15 -13 -12 -9 -8 -5 -3 -2 -61 -49 -36 -28 -48 -35 -27 -32 -24 -22 0
-12 -13 -15 -18 -19 -1 -22 -24 -27 -28 -2 -32 -35 -36 -3 -48 -49 -5 -61 -8 -9 0
-12 -2 -28 -27 -24 -22 -1 -19 -18 -15 -13 -9 -8 -5 -3 -61 -49 -36 -48 -35 -32 0
-22 -24 -27 -28 -2 -12 -32 -35 -36 -3 -13 -48 -49 -5 -15 -61 -8 -18 -9 -19 -1 0
-22 -13 -3 -36 -35 -32 -12 -2 -28 -27 -24 -1 -19 -18 -15 -9 -8 -5 -61 -49 -48 0
-32 -35 -36 -3 -13 -22 -48 -49 -5 -15 -24 -61 -8 -18 -27 -9 -19 -28 -1 -2 -12 0
-32 -24 -15 -5 -49 -48 -22 -13 -3 -36 -35 -12 -2 -28 -27 -1 -19 -18 -9 -8 -61 0
-48 -49 -5 -15 -24 -32 -61 -8 -18 -27 -35 -9 -19 -28 -36 -1 -2 -3 -12 -13 -22 0
-48 -35 -27 -18 -8 -61 -32 -24 -15 -5 -49 -22 -13 -3 -36 -12 -2 -28 -1 -19 -9 0
-61 -8 -18 -27 -35 -48 -9 -19 -28 -36 -49 -1 -2 -3 -5 -12 -13 -15 -22 -24 -32 0
-9 -19 -28 -36 -49 -61 -1 -2 -3 -5 -8 -12 -13 -15 -18 -22 -24 -27 -32 -35 -48 0
-61 -49 -36 -28 -19 -9 -48 -35 -27 -18 -8 -32 -24 -15 -5 -22 -13 -3 -12 -2 -1 0
-1 -2 -3 -5 -8 -10 -12 -13 -15 -18 -20 -22 -24 -27 -29 -32 -35 -37 -48 -50 -62 0
-10 -8 -5 -3 -2 -1 -62 -50 -37 -29 -20 -48 -35 -27 -18 -32 -24 -15 -22 -13 -12 0
-1 -20 -18 -15 -13 -12 -10 -8 -5 -3 -2 -62 -50 -37 -29 -48 -35 -27 -32 -24 -22 0
-12 -13 -15 -18 -20 -1 -22 -24 -27 -29 -2 -32 -35 -37 -3 -48 -50 -5 -62 -8 -10 0
-12 -2 -29 -27 -24 -22 -1 -20 -18 -15 -13 -10 -8 -5 -3 -62 -50 -37 -48 -35 -32 0
-22 -24 -27 -29 -2 -12 -32 -35 -37 -3 -13 -48 -50 -5 -15 -62 -8 -18 -10 -20 -1 0
-22 -13 -3 -37 -35 -32 -12 -2 -29 -27 -24 -1 -20 -18 -15 -10 -8 -5 -62 -50 -48 0
-32 -35 -37 -3 -13 -22 -48 -50 -5 -15 -24 -62 -8 -18 -27 -10 -20 -29 -1 -2 -12 0
-32 -24 -15 -5 -50 -48 -22 -13 -3 -37 -35 -12 -2 -29 -27 -1 -20 -18 -10 -8 -62 0
-48 -50 -5 -15 -24 -32 -62 -8 -18 -27 -35 -10 -20 -29 -37 -1 -2 -3 -12 -13 -22 0
-48 -35 -27 -18 -8 -62 -32 -24 -15 -5 -50 -22 -13 -3 -37 -12 -2 -29 -1 -20 -10 0
-62 -8 -18 -27 -35 -48 -10 -20 -29 -37 -50 -1 -2 -3 -5 -12 -13 -15 -22 -24 -32 0
-10 -20 -29 -37 -50 -62 -1 -2 -3 -5 -8 -12 -13 -15 -18 -22 -24 -27 -32 -35 -48 0
-62 -50 -37 -29 -20 -10 -48 -35 -27 -18 -8 -32 -24 -15 -5 -22 -13 -3 -12 -2 -1 0
-1 -2 -3 -5 -8 -11 -12 -13 -15 -18 -21 -22 -24 -27 -30 -32 -35 -38 -48 -51 -63 0
-11 -8 -5 -3 -2 -1 -63 -51 -38 -30 -21 -48 -35 -27 -18 -32 -24 -15 -22 -13 -12 0
-1 -21 -18 -15 -13 -12 -11 -8 -5 -3 -2 -63 -51 -38 -30 -48 -35 -27 -32 -24 -22 0
-12 -13 -15 -18 -21 -1 -22 -24 -27 -30 -2 -32 -35 -38 -3 -48 -51 -5 -63 -8 -11 0
-12 -2 -30 -27 -24 -22 -1 -21 -18 -15 -13 -11 -8 -5 -3 -63 -51 -38 -48 -35 -32 0
-22 -24 -27 -30 -2 -12 -32 -35 -38 -3 -13 -48 -51 -5 -15 -63 -8 -18 -11 -21 -1 0
-22 -13 -3 -38 -35 -32 -12 -2 -30 -27 -24 -1 -21 -18 -15 -11 -8 -5 -63 -51 -48 0
-32 -35 -38 -3 -13 -22 -48 -51 -5 -15 -24 -63 -8 -18 -27 -11 -21 -30 -1 -2 -12 0
-32 -24 -15 -5 -51 -48 -22 -13 -3 -38 -35 -12 -2 -30 -27 -1 -21 -18 -11 -8 -63 0
-48 -51 -5 -15 -24 -32 -63 -8 -18 -27 -35 -11 -21 -30 -38 -1 -2 -3 -12 -13 -22 0
-48 -35 -27 -18 -8 -63 -32 -24 -15 -5 -51 -22 -13 -3 -38 -12 -2 -30 -1 -21 -11 0
-63 -8 -18 -27 -35 -48 -11 -21 -30 -38 -51 -1 -2 -3 -5 -12 -13 -15 -22 -24 -32 0
-11 -21 -30 -38 -51 -63 -1 -2 -3 -5 -8 -12 -13 -15 -18 -22 -24 -27 -32 -35 -48 0
-63 -51 -38 -30 -21 -11 -48 -35 -27 -18 -8 -32 -24 -15 -5 -22 -13 -3 -12 -2 -1 0
-1 -2 -3 -5 -9 -10 -12 -13 -15 -19 -20 -22 -24 -28 -29 -32 -36 -37 -49 -50 -64 0
-10 -9 -5 -3 -2 -1 -64 -50 -37 -29 -20 -49 -36 -28 -19 -32 -24 -15 -22 -13 -12 0
-1 -20 -19 -15 -13 -12 -10 -9 -5 -3 -2 -64 -50 -37 -29 -49 -36 -28 -32 -24 -22 0
-12 -13 -15 -19 -20 -1 -22 -24 -28 -29 -2 -32 -36 -37 -3 -49 -50 -5 -64 -9 -10 0
-12 -2 -29 -28 -24 -22 -1 -20 -19 -15 -13 -10 -9 -5 -3 -64 -50 -37 -49 -36 -32 0
-22 -24 -28 -29 -2 -12 -32 -36 -37 -3 -13 -49 -50 -5 -15 -64 -9 -19 -10 -20 -1 0
-22 -13 -3 -37 -36 -32 -12 -2 -29 -28 -24 -1 -20 -19 -15 -10 -9 -5 -64 -50 -49 0
-32 -36 -37 -3 -13 -22 -49 -50 -5 -15 -24 -64 -9 -19 -28 -10 -20 -29 -1 -2 -12 0
-32 -24 -15 -5 -50 -49 -22 -13 -3 -37 -36 -12 -2 -29 -28 -1 -20 -19 -10 -9 -64 0
-49 -50 -5 -15 -24 -32 -64 -9 -19 -28 -36 -10 -20 -29 -37 -1 -2 -3 -12 -13 -22 0
-49 -36 -28 -19 -9 -64 -32 -24 -15 -5 -50 -22 -13 -3 -37 -12 -2 -29 -1 -20 -10 0
-64 -9 -19 -28 -36 -49 -10 -20 -29 -37 -50 -1 -2 -3 -5 -12 -13 -15 -22 -24 -32 0
-10 -20 -29 -37 -50 -64 -1 -2 -3 -5 -9 -12 -13 -15 -19 -22 -24 -28 -32 -36 -49 0
-64 -50 -37 -29 -20 -10 -49 -36 -28 -19 -9 -32 -24 -15 -5 -22 -13 -3 -12 -2 -1 0
-1 -2 -3 -5 -9 -11 -12 -13 -15 -19 -21 -22 -24 -28 -30 -32 -36 -38 -49 -51 -65 0
-11 -9 -5 -3 -2 -1 -65 -51 -38 -30 -21 -49 -36 -28 -19 -32 -24 -15 -22 -13 -12 0
-1 -21 -19 -15 -13 -12 -11 -9 -5 -3 -2 -65 -51 -38 -30 -49 -36 -28 -32 -24 -22 0
-12 -13 -15 -19 -21 -1 -22 -24 -28 -30 -2 -32 -36 -38 -3 -49 -51 -5 -65 -9 -11 0
-12 -2 -30 -28 -24 -22 -1 -21 -19 -15 -13 -11 -9 -5 -3 -65 -51 -38 -49 -36 -32 0
-22 -24 -28 -30 -2 -12 -32 -36 -38 -3 -13 -49 -51 -5 -15 -65 -9 -19 -11 -21 -1 0
-22 -13 -3 -38 -36 -32 -12 -2 -30 -28 -24 -1 -21 -19 -15 -11 -9 -5 -65 -51 -49 0
-32 -36 -38 -3 -13 -22 -49 -51 -5 -15 -24 -65 -9 -19 -28 -11 -21 -30 -1 -2 -12 0
-32 -24 -15 -5 -51 -49 -22 -13 -3 -38 -36 -12 -2 -30 -28 -1 -21 -19 -11 -9 -65 0
-49 -51 -5 -15 -24 -32 -65 -9 -19 -28 -36 -11 -21 -30 -38 -1 -2 -3 -12 -13 -22 0
-49 -36 -28 -19 -9 -65 -32 -24 -15 -5 -51 -22 -13 -3 -38 -12 -2 -30 -1 -21 -11 0
-65 -9 -19 -28 -36 -49 -11 -21 -30 -38 -51 -1 -2 -3 -5 -12 -13 -15 -22 -24 -32 0
-11 -21 -30 -38 -51 -65 -1 -2 -3 -5 -9 -12 -13 -15 -19 -22 -24 -28 -32 -36 -49 0
-65 -51 -38 -30 -21 -11 -49 -36 -28 -19 -9 -32 -24 -15 -5 -22 -13 -3 -12 -2 -1 0
-1 -2 -3 -5 -10 -11 -12 -13 -15 -20 -21 -22 -24 -29 -30 -32 -37 -38 -50 -51 -66 0
-11 -10 -5 -3 -2 -1 -66 -51 -38 -30 -21 -50 -37 -29 -20 -32 -24 -15 -22 -13 -12 0
-1 -21 -20 -15 -13 -12 -11 -10 -5 -3 -2 -66 -51 -38 -30 -50 -37 -29 -32 -24 -22 0
-12 -13 -15 -20 -21 -1 -22 -24 -29 -30 -2 -32 -37 -38 -3 -50 -51 -5 -66 -10 -11 0
-12 -2 -30 -29 -24 -22 -1 -21 -20 -15 -13 -11 -10 -5 -3 -66 -51 -38 -50 -37 -32 0
-22 -24 -29 -30 -2 -12 -32 -37 -38 -3 -13 -50 -51 -5 -15 -66 -10 -20 -11 -21 -1 0
-22 -13 -3 -38 -37 -32 -12 -2 -30 -29 -24 -1 -21 -20 -15 -11 -10 -5 -66 -51 -50 0
-32 -37 -38 -3 -13 -22 -50 -51 -5 -15 -24 -66 -10 -20 -29 -11 -21 -30 -1 -2 -12 0
-32 -24 -15 -5 -51 -50 -22 -13 -3 -38 -37 -12 -2 -30 -29 -1 -21 -20 -11 -10 -66 0
-50 -51 -5 -15 -24 -32 -66 -10 -20 -29 -37 -11 -21 -30 -38 -1 -2 -3 -12 -13 -22 0
-50 -37 -29 -20 -10 -66 -32 -24 -15 -5 -51 -22 -13 -3 -38 -12 -2 -30 -1 -21 -11 0
-66 -10 -20 -29 -37 -50 -11 -21 -30 -38 -51 -1 -2 -3 -5 -12 -13 -15 -22 -24 -32 0
-11 -21 -30 -38 -51 -66 -1 -2 -3 -5 -10 -12 -13 -15 -20 -22 -24 -29 -32 -37 -50 0
-66 -51 -38 -30 -21 -11 -50 -37 -29 -20 -10 -32 -24 -15 -5 -22 -13 -3 -12 -2 -1 0
-1 -2 -3 -6 -7 -8 -12 -13 -16 -17 -18 -22 -25 -26 -27 -33 -34 -35 -52 -53 -57 0
-8 -7 -6 -3 -2 -1 -57 -53 -35 -27 -18 -52 -34 -26 -17 -33 -25 -16 -22 -13 -12 0
-1 -18 -17 -16 -13 -12 -8 -7 -6 -3 -2 -57 -53 -35 -27 -52 -34 -26 -33 -25 -22 0
-12 -13 -16 -17 -18 -1 -22 -25 -26 -27 -2 -33 -34 -35 -3 -52 -53 -6 -57 -7 -8 0
-12 -2 -27 -26 -25 -22 -1 -18 -17 -16 -13 -8 -7 -6 -3 -57 -53 -35 -52 -34 -33 0
-22 -25 -26 -27 -2 -12 -33 -34 -35 -3 -13 -52 -53 -6 -16 -57 -7 -17 -8 -18 -1 0
-22 -13 -3 -35 -34 -33 -12 -2 -27 -26 -25 -1 -18 -17 -16 -8 -7 -6 -57 -53 -52 0
-33 -34 -35 -3 -13 -22 -52 -53 -6 -16 -25 -57 -7 -17 -26 -8 -18 -27 -1 -2 -12 0
-33 -25 -16 -6 -53 -52 -22 -13 -3 -35 -34 -12 -2 -27 -26 -1 -18 -17 -8 -7 -57 0
-52 -53 -6 -16 -25 -33 -57 -7 -17 -26 -34 -8 -18 -27 -35 -1 -2 -3 -12 -13 -22 0
-52 -34 -26 -17 -7 -57 -33 -25 -16 -6 -53 -22 -13 -3 -35 -12 -2 -27 -1 -18 -8 0
-57 -7 -17 -26 -34 -52 -8 -18 -27 -35 -53 -1 -2 -3 -6 -12 -13 -16 -22 -25 -33 0
-8 -18 -27 -35 -53 -57 -1 -2 -3 -6 -7 -12 -13 -16 -17 -22 -25 -26 -33 -34 -52 0
-57 -53 -35 -27 -18 -8 -52 -34 -26 -17 -7 -33 -25 -16 -6 -22 -13 -3 -12 -2 -1 0
-1 -2 -3 -6 -7 -9 -12 -13 -16 -17 -19 -22 -25 -26 -28 -33 -34 -36 -52 -54 -58 0
-9 -7 -6 -3 -2 -1 -58 -54 -36 -28 -19 -52 -34 -26 -17 -33 -25 -16 -22 -13 -12 0
-1 -19 -17 -16 -13 -12 -9 -7 -6 -3 -2 -58 -54 -36 -28 -52 -34 -26 -33 -25 -22 0
-12 -13 -16 -17 -19 -1 -22 -25 -26 -28 -2 -33 -34 -36 -3 -52 -54 -6 -58 -7 -9 0
-12 -2 -28 -26 -25 -22 -1 -19 -17 -16 -13 -9 -7 -6 -3 -58 -54 -36 -52 -34 -33 0
-22 -25 -26 -28 -2 -12 -33 -34 -36 -3 -13 -52 -54 -6 -16 -58 -7 -17 -9 -19 -1 0
-22 -13 -3 -36 -34 -33 -12 -2 -28 -26 -25 -1 -19 -17 -16 -9 -7 -6 -58 -54 -52 0
-33 -34 -36 -3 -13 -22 -52 -54 -6 -16 -25 -58 -7 -17 -26 -9 -19 -28 -1 -2 -12 0
-33 -25 -16 -6 -54 -52 -22 -13 -3 -36 -34 -12 -2 -28 -26 -1 -19 -17 -9 -7 -58 0
-52 -54 -6 -16 -25 -33 -58 -7 -17 -26 -34 -9 -19 -28 -36 -1 -2 -3 -12 -13 -22 0
-52 -34 -26 -17 -7 -58 -33 -25 -16 -6 -54 -22 -13 -3 -36 -12 -2 -28 -1 -19 -9 0
-58 -7 -17 -26 -34 -52 -9 -19 -28 -36 -54 -1 -2 -3 -6 -12 -13 -16 -22 -25 -33 0
-9 -19 -28 -36 -54 -58 -1 -2 -3 -6 -7 -12 -13 -16 -17 -22 -25 -26 -33 -34 -52 0
-58 -54 -36 -28 -19 -9 -52 -34 -26 -17 -7 -33 -25 -16 -6 -22 -13 -3 -12 -2 -1 0
-1 -2 -3 -6 -7 -10 -12 -13 -16 -17 -20 -22 -25 -26 -29 -33 -34 -37 -52 -55 -59 0
-10 -7 -6 -3 -2 -1 -59 -55 -37 -29 -20 -52 -34 -26 -17 -33 -25 -16 -22 -13 -12 0
-1 -20 -17 -16 -13 -12 -10 -7 -6 -3 -2 -59 -55 -37 -29 -52 -34 -26 -33 -25 -22 0
-12 -13 -16 -17 -20 -1 -22 -25 -26 -29 -2 -33 -34 -37 -3 -52 -55 -6 -59 -7 -10 0
-12 -2 -29 -26 -25 -22 -1 -20 -17 -16 -13 -10 -7 -6 -3 -59 -55 -37 -52 -34 -33 0
-22 -25 -26 -29 -2 -12 -33 -34 -37 -3 -13 -52 -55 -6 -16 -59 -7 -17 -10 -20 -1 0
-22 -13 -3 -37 -34 -33 -12 -2 -29 -26 -25 -1 -20 -17 -16 -10 -7 -6 -59 -55 -52 0
-33 -34 -37 -3 -13 -22 -52 -55 -6 -16 -25 -59 -7 -17 -26 -10 -20 -29 -1 -2 -12 0
-33 -25 -16 -6 -55 -52 -22 -13 -3 -37 -34 -12 -2 -29 -26 -1 -20 -17 -10 -7 -59 0
-52 -55 -6 -16 -25 -33 -59 -7 -17 -26 -34 -10 -20 -29 -37 -1 -2 -3 -12 -13 -22 0
-52 -34 -26 -17 -7 -59 -33 -25 -16 -6 -55 -22 -13 -3 -37 -12 -2 -29 -1 -20 -10 0
-59 -7 -17 -26 -34 -52 -10 -20 -29 -37 -55 -1 -2 -3 -6 -12 -13 -16 -22 -25 -33 0
-10 -20 -29 -37 -55 -59 -1 -2 -3 -6 -7 -12 -13 -16 -17 -22 -25 -26 -33 -34 -52 0
-59 -55 -37 -29 -20 -10 -52 -34 -26 -17 -7 -33 -25 -16 -6 -22 -13 -3 -12 -2 -1 0
-1 -2 -3 -6 -7 -11 -12 -13 -16 -17 -21 -22 -25 -26 -30 -33 -34 -38 -52 -56 -60 0
-11 -7 -6 -3 -2 -1 -60 -56 -38 -30 -21 -52 -34 -26 -17 -33 -25 -16 -22 -13 -12 0
-1 -21 -17 -16 -13 -12 -11 -7 -6 -3 -2 -60 -56 -38 -30 -52 -34 -26 -33 -25 -22 0
-12 -13 -16 -17 -21 -1 -22 -25 -26 -30 -2 -33 -34 -38 -3 -52 -56 -6 -60 -7 -11 0
-12 -2 -30 -26 -25 -22 -1 -21 -17 -16 -13 -11 -7 -6 -3 -60 -56 -38 -52 -34 -33 0
-22 -25 -26 -30 -2 -12 -33 -34 -38 -3 -13 -52 -56 -6 -16 -60 -7 -17 -11 -21 -1 0
-22 -13 -3 -38 -34 -33 -12 -2 -30 -26 -25 -1 -21 -17 -16 -11 -7 -6 -60 -56 -52 0
-33 -34 -38 -3 -13 -22 -52 -56 -6 -16 -25 -60 -7 -17 -26 -11 -21 -30 -1 -2 -12 0
-33 -25 -16 -6 -56 -52 -22 -13 -3 -38 -34 -12 -2 -30 -26 -1 -21 -17 -11 -7 -60 0
-52 -56 -6 -16 -25 -33 -60 -7 -17 -26 -34 -11 -21 -30 -38 -1 -2 -3 -12 -13 -22 0
-52 -34 -26 -17 -7 -60 -33 -25 -16 -6 -56 -22 -13 -3 -38 -12 -2 -30 -1 -21 -11 0
-60 -7 -17 -26 -34 -52 -11 -21 -30 -38 -56 -1 -2 -3 -6 -12 -13 -16 -22 -25 -33 0
-11 -21 -30 -38 -56 -60 -1 -2 -3 -6 -7 -12 -13 -16 -17 -22 -25 -26 -33 -34 -52 0
-60 -56 -38 -30 -21 -11 -52 -34 -26 -17 -7 -33 -25 -16 -6 -22 -13 -3 -12 -2 -1 0
-1 -2 -3 -6 -8 -9 -12 -13 -16 -18 -19 -22 -25 -27 -28 -33 -35 -36 -53 -54 -61 0
-9 -8 -6 -3 -2 -1 -61 -54 -36 -28 -19 -53 -35 -27 -18 -33 -25 -16 -22 -13 -12 0
-1 -19 -18 -16 -13 -12 -9 -8 -6 -3 -2 -61 -54 -36 -28 -53 -35 -27 -33 -25 -22 0
-12 -13 -16 -18 -19 -1 -22 -25 -27 -28 -2 -33 -35 -36 -3 -53 -54 -6 -61 -8 -9 0
-12 -2 -28 -27 -25 -22 -1 -19 -18 -16 -13 -9 -8 -6 -3 -61 -54 -36 -53 -35 -33 0
-22 -25 -27 -28 -2 -12 -33 -35 -36 -3 -13 -53 -54 -6 -16 -61 -8 -18 -9 -19 -1 0
-22 -13 -3 -36 -35 -33 -12 -2 -28 -27 -25 -1 -19 -18 -16 -9 -8 -6 -61 -54 -53 0
-33 -35 -36 -3 -13 -22 -53 -54 -6 -16 -25 -61 -8 -18 -27 -9 -19 -28 -1 -2 -12 0
-33 -25 -16 -6 -54 -53 -22 -13 -3 -36 -35 -12 -2 -28 -27 -1 -19 -18 -9 -8 -61 0
-53 -54 -6 -16 -25 -33 -61 -8 -18 -27 -35 -9 -19 -28 -36 -1 -2 -3 -12 -13 -22 0
-53 -35 -27 -18 -8 -61 -33 -25 -16 -6 -54 -22 -13 -3 -36 -12 -2 -28 -1 -19 -9 0
-61 -8 -18 -27 -35 -53 -9 -19 -28 -36 -54 -1 -2 -3 -6 -12 -13 -16 -22 -25 -33 0
-9 -19 -28 -36 -54 -61 -1 -2 -3 -6 -8 -12 -13 -16 -18 -22 -25 -27 -33 -35 -53 0
-61 -54 -36 -28 -19 -9 -53 -35 -27 -18 -8 -33 -25 -16 -6 -22 -13 -3 -12 -2 -1 0
-1 -2 -3 -6 -8 -10 -12 -13 -16 -18 -20 -22 -25 -27 -29 -33 -35 -37 -53 -55 -62 0
-10 -8 -6 -3 -2 -1 -62 -55 -37 -29 -20 -53 -35 -27 -18 -33 -25 -16 -22 -13 -12 0
-1 -20 -18 -16 -13 -12 -10 -8 -6 -3 -2 -62 -55 -37 -29 -53 -35 -27 -33 -25 -22 0
-12 -13 -16 -18 -20 -1 -22 -25 -27 -29 -2 -33 -35 -37 -3 -53 -55 -6 -62 -8 -10 0
-12 -2 -29 -27 -25 -22 -1 -20 -18 -16 -13 -10 -8 -6 -3 -62 -55 -37 -53 -35 -33 0
-22 -25 -27 -29 -2 -12 -33 -35 -37 -3 -13 -53 -55 -6 -16 -62 -8 -18 -10 -20 -1 0
-22 -13 -3 -37 -35 -33 -12 -2 -29 -27 -25 -1 -20 -18 -16 -10 -8 -6 -62 -55 -53 0
-33 -35 -37 -3 -13 -22 -53 -55 -6 -16 -25 -62 -8 -18 -27 -10 -20 -29 -1 -2 -12 0
-33 -25 -16 -6 -55 -53 -22 -13 -3 -37 -35 -12 -2 -29 -27 -1 -20 -18 -10 -8 -62 0
-53 -55 -6 -16 -25 -33 -62 -8 -18 -27 -35 -10 -20 -29 -37 -1 -2 -3 -12 -13 -22 0
-53 -35 -27 -18 -8 -62 -33 -25 -16 -6 -55 -22 -13 -3 -37 -12 -2 -29 -1 -20 -10 0
-62 -8 -18 -27 -35 -53 -10 -20 -29 -37 -55 -1 -2 -3 -6 -12 -13 -16 -22 -25 -33 0
-10 -20 -29 -37 -55 -62 -1 -2 -3 -6 -8 -12 -13 -16 -18 -22 -25 -27 -33 -35 -53 0
-62 -55 -37 -29 -20 -10 -53 -35 -27 -18 -8 -33 -25 -16 -6 -22 -13 -3 -12 -2 -1 0
-1 -2 -3 -6 -8 -11 -12 -13 -16 -18 -21 -22 -25 -27 -30 -33 -35 -38 -53 -56 -63 0
-11 -8 -6 -3 -2 -1 -63 -56 -38 -30 -21 -53 -35 -27 -18 -33 -25 -16 -22 -13 -12 0
-1 -21 -18 -16 -13 -12 -11 -8 -6 -3 -2 -63 -56 -38 -30 -53 -35 -27 -33 -25 -22 0
-12 -13 -16 -18 -21 -1 -22 -25 -27 -30 -2 -33 -35 -38 -3 -53 -56 -6 -63 -8 -11 0
-12 -2 -30 -27 -25 -22 -1 -21 -18 -16 -13 -11 -8 -6 -3 -63 -56 -38 -53 -35 -33 0
-22 -25 -27 -30 -2 -12 -33 -35 -38 -3 -13 -53 -56 -6 -16 -63 -8 -18 -11 -21 -1 0
-22 -13 -3 -38 -35 -33 -12 -2 -30 -27 -25 -1 -21 -18 -16 -11 -8 -6 -63 -56 -53 0
-33 -35 -38 -3 -13 -22 -53 -56 -6 -16 -25 -63 -8 -18 -27 -11 -21 -30 -1 -2 -12 0
-33 -25 -16 -6 -56 -53 -22 -13 -3 -38 -35 -12 -2 -30 -27 -1 -21 -18 -11 -8 -63 0
-53 -56 -6 -16 -25 -33 -63 -8 -18 -27 -35 -11 -21 -30 -38 -1 -2 -3 -12 -13 -22 0
-53 -35 -27 -18 -8 -63 -33 -25 -16 -6 -56 -22 -13 -3 -38 -12 -2 -30 -1 -21 -11 0
-63 -8 -18 -27 -35 -53 -11 -21 -30 -38 -56 -1 -2 -3 -6 -12 -13 -16 -22 -25 -33 0
-11 -21 -30 -38 -56 -63 -1 -2 -3 -6 -8 -12 -13 -16 -18 -22 -25 -27 -33 -35 -53 0
-63 -56 -38 -30 -21 -11 -53 -35 -27 -18 -8 -33 -25 -16 -6 -22 -13 -3 -12 -2 -1 0
-1 -2 -3 -6 -9 -10 -12 -13 -16 -19 -20 -22 -25 -28 -29 -33 -36 -37 -54 -55 -64 0
-10 -9 -6 -3 -2 -1 -64 -55 -37 -29 -20 -54 -36 -28 -19 -33 -25 -16 -22 -13 -12 0
-1 -20 -19 -16 -13 -12 -10 -9 -6 -3 -2 -64 -55 -37 -29 -54 -36 -28 -33 -25 -22 0
-12 -13 -16 -19 -20 -1 -22 -25 -28 -29 -2 -33 -36 -37 -3 -54 -55 -6 -64 -9 -10 0
-12 -2 -29 -28 -25 -22 -1 -20 -19 -16 -13 -10 -9 -6 -3 -64 -55 -37 -54 -36 -33 0
-22 -25 -28 -29 -2 -12 -33 -36 -37 -3 -13 -54 -55 -6 -16 -64 -9 -19 -10 -20 -1 0
-22 -13 -3 -37 -36 -33 -12 -2 -29 -28 -25 -1 -20 -19 -16 -10 -9 -6 -64 -55 -54 0
-33 -36 -37 -3 -13 -22 -54 -55 -6 -16 -25 -64 -9 -19 -28 -10 -20 -29 -1 -2 -12 0
-33 -25 -16 -6 -55 -54 -22 -13 -3 -37 -36 -12 -2 -29 -28 -1 -20 -19 -10 -9 -64 0
-54 -55 -6 -16 -25 -33 -64 -9 -19 -28 -36 -10 -20 -29 -37 -1 -2 -3 -12 -13 -22 0
-54 -36 -28 -19 -9 -64 -33 -25 -16 -6 -55 -22 -13 -3 -37 -12 -2 -29 -1 -20 -10 0
-64 -9 -19 -28 -36 -54 -10 -20 -29 -37 -55 -1 -2 -3 -6 -12 -13 -16 -22 -25 -33 0
-10 -20 -29 -37 -55 -64 -1 -2 -3 -6 -9 -12 -13 -16 -19 -22 -25 -28 -33 -36 -54 0
-64 -55 -37 -29 -20 -10 -54 -36 -28 -19 -9 -33 -25 -16 -6 -22 -13 -3 -12 -2 -1 0
-1 -2 -3 -6 -9 -11 -12 -13 -16 -19 -21 -22 -25 -28 -30 -33 -36 -38 -54 -56 -65 0
-11 -9 -6 -3 -2 -1 -65 -56 -38 -30 -21 -54 -36 -28 -19 -33 -25 -16 -22 -13 -12 0
-1 -21 -19 -16 -13 -12 -11 -9 -6 -3 -2 -65 -56 -38 -30 -54 -36 -28 -33 -25 -22 0
-12 -13 -16 -19 -21 -1 -22 -25 -28 -30 -2 -33 -36 -38 -3 -54 -56 -6 -65 -9 -11 0
-12 -2 -30 -28 -25 -22 -1 -21 -19 -16 -13 -11 -9 -6 -3 -65 -56 -38 -54 -36 -33 0
-22 -25 -28 -30 -2 -12 -33 -36 -38 -3 -13 -54 -56 -6 -16 -65 -9 -19 -11 -21 -1 0
-22 -13 -3 -38 -36 -33 -12 -2 -30 -28 -25 -1 -21 -19 -16 -11 -9 -6 -65 -56 -54 0
-33 -36 -38 -3 -13 -22 -54 -56 -6 -16 -25 -65 -9 -19 -28 -11 -21 -30 -1 -2 -12 0
-33 -25 -16 -6 -56 -54 -22 -13 -3 -38 -36 -12 -2 -30 -28 -1 -21 -19 -11 -9 -65 0
-54 -56 -6 -16 -25 -33 -65 -9 -19 -28 -36 -11 -21 -30 -38 -1 -2 -3 -12 -13 -22 0
-54 -36 -28 -19 -9 -65 -33 -25 -16 -6 -56 -22 -13 -3 -38 -12 -2 -30 -1 -21 -11 0
-65 -9 -19 -28 -36 -54 -11 -21 -30 -38 -56 -1 -2 -3 -6 -12 -13 -16 -22 -25 -33 0
-11 -21 -30 -38 -56 -65 -1 -2 -3 -6 -9 -12 -13 -16 -19 -22 -25 -28 -33 -36 -54 0
-65 -56 -38 -30 -21 -11 -54 -36 -28 -19 -9 -33 -25 -16 -6 -22 -13 -3 -12 -2 -1 0
-1 -2 -3 -6 -10 -11 -12 -13 -16 -20 -21 -22 -25 -29 -30 -33 -37 -38 -55 -56 -66 0
-11 -10 -6 -3 -2 -1 -66 -56 -38 -30 -21 -55 -37 -29 -20 -33 -25 -16 -22 -13 -12 0
-1 -21 -20 -16 -13 -12 -11 -10 -6 -3 -2 -66 -56 -38 -30 -55 -37 -29 -33 -25 -22 0
-12 -13 -16 -20 -21 -1 -22 -25 -29 -30 -2 -33 -37 -38 -3 -55 -56 -6 -66 -10 -11 0
-12 -2 -30 -29 -25 -22 -1 -21 -20 -16 -13 -11 -10 -6 -3 -66 -56 -38 -55 -37 -33 0
-22 -25 -29 -30 -2 -12 -33 -37 -38 -3 -13 -55 -56 -6 -16 -66 -10 -20 -11 -21 -1 0
-22 -13 -3 -38 -37 -33 -12 -2 -30 -29 -25 -1 -21 -20 -16 -11 -10 -6 -66 -56 -55 0
-33 -37 -38 -3 -13 -22 -55 -56 -6 -16 -25 -66 -10 -20 -29 -11 -21 -30 -1 -2 -12 0
-33 -25 -16 -6 -56 -55 -22 -13 -3 -38 -37 -12 -2 -30 -29 -1 -21 -20 -11 -10 -66 0
-55 -56 -6 -16 -25 -33 -66 -10 -20 -29 -37 -11 -21 -30 -38 -1 -2 -3 -12 -13 -22 0
-55 -37 -29 -20 -10 -66 -33 -25 -16 -6 -56 -22 -13 -3 -38 -12 -2 -30 -1 -21 -11 0
-66 -10 -20 -29 -37 -55 -11 -21 -30 -38 -56 -1 -2 -3 -6 -12 -13 -16 -22 -25 -33 0
-11 -21 -30 -38 -56 -66 -1 -2 -3 -6 -10 -12 -13 -16 -20 -22 -25 -29 -33 -37 -55 0
-66 -56 -38 -30 -21 -11 -55 -37 -29 -20 -10 -33 -25 -16 -6 -22 -13 -3 -12 -2 -1 0
-1 -2 -3 -7 -8 -9 -12 -13 -17 -18 -19 -22 -26 -27 -28 -34 -35 -36 -57 -58 -61 0
-9 -8 -7 -3 -2 -1 -61 -58 -36 -28 -19 -57 -35 -27 -18 -34 -26 -17 -22 -13 -12 0
-1 -19 -18 -17 -13 -12 -9 -8 -7 -3 -2 -61 -58 -36 -28 -57 -35 -27 -34 -26 -22 0
-12 -13 -17 -18 -19 -1 -22 -26 -27 -28 -2 -34 -35 -36 -3 -57 -58 -7 -61 -8 -9 0
-12 -2 -28 -27 -26 -22 -1 -19 -18 -17 -13 -9 -8 -7 -3 -61 -58 -36 -57 -35 -34 0
-22 -26 -27 -28 -2 -12 -34 -35 -36 -3 -13 -57 -58 -7 -17 -61 -8 -18 -9 -19 -1 0
-22 -13 -3 -36 -35 -34 -12 -2 -28 -27 -26 -1 -19 -18 -17 -9 -8 -7 -61 -58 -57 0
-34 -35 -36 -3 -13 -22 -57 -58 -7 -17 -26 -61 -8 -18 -27 -9 -19 -28 -1 -2 -12 0
-34 -26 -17 -7 -58 -57 -22 -13 -3 -36 -35 -12 -2 -28 -27 -1 -19 -18 -9 -8 -61 0
-57 -58 -7 -17 -26 -34 -61 -8 -18 -27 -35 -9 -19 -28 -36 -1 -2 -3 -12 -13 -22 0
-57 -35 -27 -18 -8 -61 -34 -26 -17 -7 -58 -22 -13 -3 -36 -12 -2 -28 -1 -19 -9 0
-61 -8 -18 -27 -35 -57 -9 -19 -28 -36 -58 -1 -2 -3 -7 -12 -13 -17 -22 -26 -34 0
-9 -19 -28 -36 -58 -61 -1 -2 -3 -7 -8 -12 -13 -17 -18 -22 -26 -27 -34 -35 -57 0
-61 -58 -36 -28 -19 -9 -57 -35 -27 -18 -8 -34 -26 -17 -7 -22 -13 -3 -12 -2 -1 0
-1 -2 -3 -7 -8 -10 -12 -13 -17 -18 -20 -22 -26 -27 -29 -34 -35 -37 -57 -59 -62 0
-10 -8 -7 -3 -2 -1 -62 -59 -37 -29 -20 -57 -35 -27 -18 -34 -26 -17 -22 -13 -12 0
-1 -20 -18 -17 -13 -12 -10 -8 -7 -3 -2 -62 -59 -37 -29 -57 -35 -27 -34 -26 -22 0
-12 -13 -17 -18 -20 -1 -22 -26 -27 -29 -2 -34 -35 -37 -3 -57 -59 -7 -62 -8 -10 0
-12 -2 -29 -27 -26 -22 -1 -20 -18 -17 -13 -10 -8 -7 -3 -62 -59 -37 -57 -35 -34 0
-22 -26 -27 -29 -2 -12 -34 -35 -37 -3 -13 -57 -59 -7 -17 -62 -8 -18 -10 -20 -1 0
-22 -13 -3 -37 -35 -34 -12 -2 -29 -27 -26 -1 -20 -18 -17 -10 -8 -7 -62 -59 -57 0
-34 -35 -37 -3 -13 -22 -57 -59 -7 -17 -26 -62 -8 -18 -27 -10 -20 -29 -1 -2 -12 0
-34 -26 -17 -7 -59 -57 -22 -13 -3 -37 -35 -12 -2 -29 -27 -1 -20 -18 -10 -8 -62 0
-57 -59 -7 -17 -26 -34 -62 -8 -18 -27 -35 -10 -20 -29 -37 -1 -2 -3 -12 -13 -22 0
-57 -35 -27 -18 -8 -62 -34 -26 -17 -7 -59 -22 -13 -3 -37 -12 -2 -29 -1 -20 -10 0
-62 -8 -18 -27 -35 -57 -10 -20 -29 -37 -59 -1 -2 -3 -7 -12 -13 -17 -22 -26 -34 0
-10 -20 -29 -37 -59 -62 -1 -2 -3 -7 -8 -12 -13 -17 -18 -22 -26 -27 -34 -35 -57 0
-62 -59 -37 -29 -20 -10 -57 -35 -27 -18 -8 -34 -26 -17 -7 -22 -13 -3 -12 -2 -1 0
-1 -2 -3 -7 -8 -11 -12 -13 -17 -18 -21 -22 -26 -27 -30 -34 -35 -38 -57 -60 -63 0
-11 -8 -7 -3 -2 -1 -63 -60 -38 -30 -21 -57 -35 -27 -18 -34 -26 -17 -22 -13 -12 0
-1 -21 -18 -17 -13 -12 -11 -8 -7 -3 -2 -63 -60 -38 -30 -57 -35 -27 -34 -26 -22 0
-12 -13 -17 -18 -21 -1 -22 -26 -27 -30 -2 -34 -35 -38 -3 -57 -60 -7 -63 -8 -11 0
-12 -2 -30 -27 -26 -22 -1 -21 -18 -17 -13 -11 -8 -7 -3 -63 -60 -38 -57 -35 -34 0
-22 -26 -27 -30 -2 -12 -34 -35 -38 -3 -13 -57 -60 -7 -17 -63 -8 -18 -11 -21 -1 0
-22 -13 -3 -38 -35 -34 -12 -2 -30 -27 -26 -1 -21 -18 -17 -11 -8 -7 -63 -60 -57 0
-34 -35 -38 -3 -13 -22 -57 -60 -7 -17 -26 -63 -8 -18 -27 -11 -21 -30 -1 -2 -12 0
-34 -26 -17 -7 -60 -57 -22 -13 -3 -38 -35 -12 -2 -30 -27 -1 -21 -18 -11 -8 -63 0
-57 -60 -7 -17 -26 -34 -63 -8 -18 -27 -35 -11 -21 -30 -38 -1 -2 -3 -12 -13 -22 0
-57 -35 -27 -18 -8 -63 -34 -26 -17 -7 -60 -22 -13 -3 -38 -12 -2 -30 -1 -21 -11 0
-63 -8 -18 -27 -35 -57 -11 -21 -30 -38 -60 -1 -2 -3 -7 -12 -13 -17 -22 -26 -34 0
-11 -21 -30 -38 -60 -63 -1 -2 -3 -7 -8 -12 -13 -17 -18 -22 -26 -27 -34 -35 -57 0
-63 -60 -38 -30 -21 -11 -57 -35 -27 -18 -8 -34 -26 -17 -7 -22 -13 -3 -12 -2 -1 0
-1 -2 -3 -7 -9 -10 -12 -13 -17 -19 -20 -22 -26 -28 -29 -34 -36 -37 -58 -59 -64 0
-10 -9 -7 -3 -2 -1 -64 -59 -37 -29 -20 -58 -36 -28 -19 -34 -26 -17 -22 -13 -12 0
-1 -20 -19 -17 -13 -12 -10 -9 -7 -3 -2 -64 -59 -37 -29 -58 -36 -28 -34 -26 -22 0
-12 -13 -17 -19 -20 -1 -22 -26 -28 -29 -2 -34 -36 -37 -3 -58 -59 -7 -64 -9 -10 0
-12 -2 -29 -28 -26 -22 -1 -20 -19 -17 -13 -10 -9 -7 -3 -64 -59 -37 -58 -36 -34 0
-22 -26 -28 -29 -2 -12 -34 -36 -37 -3 -13 -58 -59 -7 -17 -64 -9 -19 -10 -20 -1 0
-22 -13 -3 -37 -36 -34 -12 -2 -29 -28 -26 -1 -20 -19 -17 -10 -9 -7 -64 -59 -58 0
-34 -36 -37 -3 -13 -22 -58 -59 -7 -17 -26 -64 -9 -19 -28 -10 -20 -29 -1 -2 -12 0
-34 -26 -17 -7 -59 -58 -22 -13 -3 -37 -36 -12 -2 -29 -28 -1 -20 -19 -10 -9 -64 0
-58 -59 -7 -17 -26 -34 -64 -9 -19 -28 -36 -10 -20 -29 -37 -1 -2 -3 -12 -13 -22 0
-58 -36 -28 -19 -9 -64 -34 -26 -17 -7 -59 -22 -13 -3 -37 -12 -2 -29 -1 -20 -10 0
-64 -9 -19 -28 -36 -58 -10 -20 -29 -37 -59 -1 -2 -3 -7 -12 -13 -17 -22 -26 -34 0
-10 -20 -29 -37 -59 -64 -1 -2 -3 -7 -9 -12 -13 -17 -19 -22 -26 -28 -34 -36 -58 0
-64 -59 -37 -29 -20 -10 -58 -36 -28 -19 -9 -34 -26 -17 -7 -22 -13 -3 -12 -2 -1 0
-1 -2 -3 -7 -9 -11 -12 -13 -17 -19 -21 -22 -26 -28 -30 -34 -36 -38 -58 -60 -65 0
-11 -9 -7 -3 -2 -1 -65 -60 -38 -30 -21 -58 -36 -28 -19 -34 -26 -17 -22 -13 -12 0
-1 -21 -19 -17 -13 -12 -11 -9 -7 -3 -2 -65 -60 -38 -30 -58 -36 -28 -34 -26 -22 0
-12 -13 -17 -19 -21 -1 -22 -26 -28 -30 -2 -34 -36 -38 -3 -58 -60 -7 -65 -9 -11 0
-12 -2 -30 -28 -26 -22 -1 -21 -19 -17 -13 -11 -9 -7 -3 -65 -60 -38 -58 -36 -34 0
-22 -26 -28 -30 -2 -12 -34 -36 -38 -3 -13 -58 -60 -7 -17 -65 -9 -19 -11 -21 -1 0
-22 -13 -3 -38 -36 -34 -12 -2 -30 -28 -26 -1 -21 -19 -17 -11 -9 -7 -65 -60 -58 0
-34 -36 -38 -3 -13 -22 -58 -60 -7 -17 -26 -65 -9 -19 -28 -11 -21 -30 -1 -2 -12 0
-34 -26 -17 -7 -60 -58 -22 -13 -3 -38 -36 -12 -2 -30 -28 -1 -21 -19 -11 -9 -65 0
-58 -60 -7 -17 -26 -34 -65 -9 -19 -28 -36 -11 -21 -30 -38 -1 -2 -3 -12 -13 -22 0
-58 -36 -28 -19 -9 -65 -34 -26 -17 -7 -60 -22 -13 -3 -38 -12 -2 -30 -1 -21 -11 0
-65 -9 -19 -28 -36 -58 -11 -21 -30 -38 -60 -1 -2 -3 -7 -12 -13 -17 -22 -26 -34 0
-11 -21 -30 -38 -60 -65 -1 -2 -3 -7 -9 -12 -13 -17 -19 -22 -26 -28 -34 -36 -58 0
-65 -60 -38 -30 -21 -11 -58 -36 -28 -19 -9 -34 -26 -17 -7 -22 -13 -3 -12 -2 -1 0
-1 -2 -3 -7 -10 -11 -12 -13 -17 -20 -21 -22 -26 -29 -30 -34 -37 -38 -59 -60 -66 0
-11 -10 -7 -3 -2 -1 -66 -60 -38 -30 -21 -59 -37 -29 -20 -34 -26 -17 -22 -13 -12 0
-1 -21 -20 -17 -13 -12 -11 -10 -7 -3 -2 -66 -60 -38 -30 -59 -37 -29 -34 -26 -22 0
-12 -13 -17 -20 -21 -1 -22 -26 -29 -30 -2 -34 -37 -38 -3 -59 -60 -7 -66 -10 -11 0
-12 -2 -30 -29 -26 -22 -1 -21 -20 -17 -13 -11 -10 -7 -3 -66 -60 -38 -59 -37 -34 0
-22 -26 -29 -30 -2 -12 -34 -37 -38 -3 -13 -59 -60 -7 -17 -66 -10 -20 -11 -21 -1 0
-22 -13 -3 -38 -37 -34 -12 -2 -30 -29 -26 -1 -21 -20 -17 -11 -10 -7 -66 -60 -59 0
-34 -37 -38 -3 -13 -22 -59 -60 -7 -17 -26 -66 -10 -20 -29 -11 -21 -30 -1 -2 -12 0
-34 -26 -17 -7 -60 -59 -22 -13 -3 -38 -37 -12 -2 -30 -29 -1 -21 -20 -11 -10 -66 0
-59 -60 -7 -17 -26 -34 -66 -10 -20 -29 -37 -11 -21 -30 -38 -1 -2 -3 -12 -13 -22 0
-59 -37 -29 -20 -10 -66 -34 -26 -17 -7 -60 -22 -13 -3 -38 -12 -2 -30 -1 -21 -11 0
-66 -10 -20 -29 -37 -59 -11 -21 -30 -38 -60 -1 -2 -3 -7 -12 -13 -17 -22 -26 -34 0
-11 -21 -30 -38 -60 -66 -1 -2 -3 -7 -10 -12 -13 -17 -20 -22 -26 -29 -34 -37 -59 0
-66 -60 -38 -30 -21 -11 -59 -37 -29 -20 -10 -34 -26 -17 -7 -22 -13 -3 -12 -2 -1 0
-1 -2 -3 -8 -9 -10 -12 -13 -18 -19 -20 -22 -27 -28 -29 -35 -36 -37 -61 -62 -64 0
-10 -9 -8 -3 -2 -1 -64 -62 -37 -29 -20 -61 -36 -28 -19 -35 -27 -18 -22 -13 -12 0
-1 -20 -19 -18 -13 -12 -10 -9 -8 -3 -2 -64 -62 -37 -29 -61 -36 -28 -35 -27 -22 0
-12 -13 -18 -19 -20 -1 -22 -27 -28 -29 -2 -35 -36 -37 -3 -61 -62 -8 -64 -9 -10 0
-12 -2 -29 -28 -27 -22 -1 -20 -19 -18 -13 -10 -9 -8 -3 -64 -62 -37 -61 -36 -35 0
-22 -27 -28 -29 -2 -12 -35 -36 -37 -3 -13 -61 -62 -8 -18 -64 -9 -19 -10 -20 -1 0
-22 -13 -3 -37 -36 -35 -12 -2 -29 -28 -27 -1 -20 -19 -18 -10 -9 -8 -64 -62 -61 0
-35 -36 -37 -3 -13 -22 -61 -62 -8 -18 -27 -64 -9 -19 -28 -10 -20 -29 -1 -2 -12 0
-35 -27 -18 -8 -62 -61 -22 -13 -3 -37 -36 -12 -2 -29 -28 -1 -20 -19 -10 -9 -64 0
-61 -62 -8 -18 -27 -35 -64 -9 -19 -28 -36 -10 -20 -29 -37 -1 -2 -3 -12 -13 -22 0
-61 -36 -28 -19 -9 -64 -35 -27 -18 -8 -62 -22 -13 -3 -37 -12 -2 -29 -1 -20 -10 0
-64 -9 -19 -28 -36 -61 -10 -20 -29 -37 -62 -1 -2 -3 -8 -12 -13 -18 -22 -27 -35 0
-10 -20 -29 -37 -62 -64 -1 -2 -3 -8 -9 -12 -13 -18 -19 -22 -27 -28 -35 -36 -61 0
-64 -62 -37 -29 -20 -10 -61 -36 -28 -19 -9 -35 -27 -18 -8 -22 -13 -3 -12 -2 -1 0
-1 -2 -3 -8 -9 -11 -12 -13 -18 -19 -21 -22 -27 -28 -30 -35 -36 -38 -61 -63 -65 0
-11 -9 -8 -3 -2 -1 -65 -63 -38 -30 -21 -61 -36 -28 -19 -35 -27 -18 -22 -13 -12 0
-1 -21 -19 -18 -13 -12 -11 -9 -8 -3 -2 -65 -63 -38 -30 -61 -36 -28 -35 -27 -22 0
-12 -13 -18 -19 -21 -1 -22 -27 -28 -30 -2 -35 -36 -38 -3 -61 -63 -8 -65 -9 -11 0
-12 -2 -30 -28 -27 -22 -1 -21 -19 -18 -13 -11 -9 -8 -3 -65 -63 -38 -61 -36 -35 0
-22 -27 -28 -30 -2 -12 -35 -36 -38 -3 -13 -61 -63 -8 -18 -65 -9 -19 -11 -21 -1 0
-22 -13 -3 -38 -36 -35 -12 -2 -30 -28 -27 -1 -21 -19 -18 -11 -9 -8 -65 -63 -61 0
-35 -36 -38 -3 -13 -22 -61 -63 -8 -18 -27 -65 -9 -19 -28 -11 -21 -30 -1 -2 -12 0
-35 -27 -18 -8 -63 -61 -22 -13 -3 -38 -36 -12 -2 -30 -28 -1 -21 -19 -11 -9 -65 0
-61 -63 -8 -18 -27 -35 -65 -9 -19 -28 -36 -11 -21 -30 -38 -1 -2 -3 -12 -13 -22 0
-61 -36 -28 -19 -9 -65 -35 -27 -18 -8 -63 -22 -13 -3 -38 -12 -2 -30 -1 -21 -11 0
-65 -9 -19 -28 -36 -61 -11 -21 -30 -38 -63 -1 -2 -3 -8 -12 -13 -18 -22 -27 -35 0
-11 -21 -30 -38 -63 -65 -1 -2 -3 -8 -9 -12 -13 -18 -19 -22 -27 -28 -35 -36 -61 0
-65 -63 -38 -30 -21 -11 -61 -36 -28 -19 -9 -35 -27 -18 -8 -22 -13 -3 -12 -2 -1 0
-1 -2 -3 -8 -10 -11 -12 -13 -18 -20 -21 -22 -27 -29 -30 -35 -37 -38 -62 -63 -66 0
-11 -10 -8 -3 -2 -1 -66 -63 -38 -30 -21 -62 -37 -29 -20 -35 -27 -18 -22 -13 -12 0
-1 -21 -20 -18 -13 -12 -11 -10 -8 -3 -2 -66 -63 -38 -30 -62 -37 -29 -35 -27 -22 0
-12 -13 -18 -20 -21 -1 -22 -27 -29 -30 -2 -35 -37 -38 -3 -62 -63 -8 -66 -10 -11 0
-12 -2 -30 -29 -27 -22 -1 -21 -20 -18 -13 -11 -10 -8 -3 -66 -63 -38 -62 -37 -35 0
-22 -27 -29 -30 -2 -12 -35 -37 -38 -3 -13 -62 -63 -8 -18 -66 -10 -20 -11 -21 -1 0
-22 -13 -3 -38 -37 -35 -12 -2 -30 -29 -27 -1 -21 -20 -18 -11 -10 -8 -66 -63 -62 0
-35 -37 -38 -3 -13 -22 -62 -63 -8 -18 -27 -66 -10 -20 -29 -11 -21 -30 -1 -2 -12 0
-35 -27 -18 -8 -63 -62 -22 -13 -3 -38 -37 -12 -2 -30 -29 -1 -21 -20 -11 -10 -66 0
-62 -63 -8 -18 -27 -35 -66 -10 -20 -29 -37 -11 -21 -30 -38 -1 -2 -3 -12 -13 -22 0
-62 -37 -29 -20 -10 -66 -35 -27 -18 -8 -63 -22 -13 -3 -38 -12 -2 -30 -1 -21 -11 0
-66 -10 -20 -29 -37 -62 -11 -21 -30 -38 -63 -1 -2 -3 -8 -12 -13 -18 -22 -27 -35 0
-11 -21 -30 -38 -63 -66 -1 -2 -3 -8 -10 -12 -13 -18 -20 -22 -27 -29 -35 -37 -62 0
-66 -63 -38 -30 -21 -11 -62 -37 -29 -20 -10 -35 -27 -18 -8 -22 -13 -3 -12 -2 -1 0
-1 -2 -3 -9 -10 -11 -12 -13 -19 -20 -21 -22 -28 -29 -30 -36 -37 -38 -64 -65 -66 0
-11 -10 -9 -3 -2 -1 -66 -65 -38 -30 -21 -64 -37 -29 -20 -36 -28 -19 -22 -13 -12 0
-1 -21 -20 -19 -13 -12 -11 -10 -9 -3 -2 -66 -65 -38 -30 -64 -37 -29 -36 -28 -22 0
-12 -13 -19 -20 -21 -1 -22 -28 -29 -30 -2 -36 -37 -38 -3 -64 -65 -9 -66 -10 -11 0
-12 -2 -30 -29 -28 -22 -1 -21 -20 -19 -13 -11 -10 -9 -3 -66 -65 -38 -64 -37 -36 0
-22 -28 -29 -30 -2 -12 -36 -37 -38 -3 -13 -64 -65 -9 -19 -66 -10 -20 -11 -21 -1 0
-22 -13 -3 -38 -37 -36 -12 -2 -30 -29 -28 -1 -21 -20 -19 -11 -10 -9 -66 -65 -64 0
-36 -37 -38 -3 -13 -22 -64 -65 -9 -19 -28 -66 -10 -20 -29 -11 -21 -30 -1 -2 -12 0
-36 -28 -19 -9 -65 -64 -22 -13 -3 -38 -37 -12 -2 -30 -29 -1 -21 -20 -11 -10 -66 0
-64 -65 -9 -19 -28 -36 -66 -10 -20 -29 -37 -11 -21 -30 -38 -1 -2 -3 -12 -13 -22 0
-64 -37 -29 -20 -10 -66 -36 -28 -19 -9 -65 -22 -13 -3 -38 -12 -2 -30 -1 -21 -11 0
-66 -10 -20 -29 -37 -64 -11 -21 -30 -38 -65 -1 -2 -3 -9 -12 -13 -19 -22 -28 -36 0
-11 -21 -30 -38 -65 -66 -1 -2 -3 -9 -10 -12 -13 -19 -20 -22 -28 -29 -36 -37 -64 0
-66 -65 -38 -30 -21 -11 -64 -37 -29 -20 -10 -36 -28 -19 -9 -22 -13 -3 -12 -2 -1 0
-1 -2 -4 -5 -6 -7 -12 -14 -15 -16 -17 -23 -24 -25 -26 -39 -40 -41 -46 -47 -52 0
-7 -6 -5 -4 -2 -1 -52 -47 -41 -26 -17 -46 -40 -25 -16 -39 -24 -15 -23 -14 -12 0
-1 -17 -16 -15 -14 -12 -7 -6 -5 -4 -2 -52 -47 -41 -26 -46 -40 -25 -39 -24 -23 0
-12 -14 -15 -16 -17 -1 -23 -24 -25 -26 -2 -39 -40 -41 -4 -46 -47 -5 -52 -6 -7 0
-12 -2 -26 -25 -24 -23 -1 -17 -16 -15 -14 -7 -6 -5 -4 -52 -47 -41 -46 -40 -39 0
-23 -24 -25 -26 -2 -12 -39 -40 -41 -4 -14 -46 -47 -5 -15 -52 -6 -16 -7 -17 -1 0
-23 -14 -4 -41 -40 -39 -12 -2 -26 -25 -24 -1 -17 -16 -15 -7 -6 -5 -52 -47 -46 0
-39 -40 -41 -4 -14 -23 -46 -47 -5 -15 -24 -52 -6 -16 -25 -7 -17 -26 -1 -2 -12 0
-39 -24 -15 -5 -47 -46 -23 -14 -4 -41 -40 -12 -2 -26 -25 -1 -17 -16 -7 -6 -52 0
-46 -47 -5 -15 -24 -39 -52 -6 -16 -25 -40 -7 -17 -26 -41 -1 -2 -4 -12 -14 -23 0
-46 -40 -25 -16 -6 -52 -39 -24 -15 -5 -47 -23 -14 -4 -41 -12 -2 -26 -1 -17 -7 0
-52 -6 -16 -25 -40 -46 -7 -17 -26 -41 -47 -1 -2 -4 -5 -12 -14 -15 -23 -24 -39 0
-7 -17 -26 -41 -47 -52 -1 -2 -4 -5 -6 -12 -14 -15 -16 -23 -24 -25 -39 -40 -46 0
-52 -47 -41 -26 -17 -7 -46 -40 -25 -16 -6 -39 -24 -15 -5 -23 -14 -4 -12 -2 -1 0
-1 -2 -4 -5 -6 -8 -12 -14 -15 -16 -18 -23 -24 -25 -27 -39 -40 -42 -46 -48 -53 0
-8 -6 -5 -4 -2 -1 -53 -48 -42 -27 -18 -46 -40 -25 -16 -39 -24 -15 -23 -14 -12 0
-1 -18 -16 -15 -14 -12 -8 -6 -5 -4 -2 -53 -48 -42 -27 -46 -40 -25 -39 -24 -23 0
-12 -14 -15 -16 -18 -1 -23 -24 -25 -27 -2 -39 -40 -42 -4 -46 -48 -5 -53 -6 -8 0
-12 -2 -27 -25 -24 -23 -1 -18 -16 -15 -14 -8 -6 -5 -4 -53 -48 -42 -46 -40 -39 0
-23 -24 -25 -27 -2 -12 -39 -40 -42 -4 -14 -46 -48 -5 -15 -53 -6 -16 -8 -18 -1 0
-23 -14 -4 -42 -40 -39 -12 -2 -27 -25 -24 -1 -18 -16 -15 -8 -6 -5 -53 -48 -46 0
-39 -40 -42 -4 -14 -23 -46 -48 -5 -15 -24 -53 -6 -16 -25 -8 -18 -27 -1 -2 -12 0
-39 -24 -15 -5 -48 -46 -23 -14 -4 -42 -40 -12 -2 -27 -25 -1 -18 -16 -8 -6 -53 0
-46 -48 -5 -15 -24 -39 -53 -6 -16 -25 -40 -8 -18 -27 -42 -1 -2 -4 -12 -14 -23 0
-46 -40 -25 -16 -6 -53 -39 -24 -15 -5 -48 -23 -14 -4 -42 -12 -2 -27 -1 -18 -8 0
-53 -6 -16 -25 -40 -46 -8 -18 -27 -42 -48 -1 -2 -4 -5 -12 -14 -15 -23 -24 -39 0
-8 -18 -27 -42 -48 -53 -1 -2 -4 -5 -6 -12 -14 -15 -16 -23 -24 -25 -39 -40 -46 0
-53 -48 -42 -27 -18 -8 -46 -40 -25 -16 -6 -39 -24 -15 -5 -23 -14 -4 -12 -2 -1 0
-1 -2 -4 -5 -6 -9 -12 -14 -15 -16 -19 -23 -24 -25 -28 -39 -40 -43 -46 -49 -54 0
-9 -6 -5 -4 -2 -1 -54 -49 -43 -28 -19 -46 -40 -25 -16 -39 -24 -15 -23 -14 -12 0
-1 -19 -16 -15 -14 -12 -9 -6 -5 -4 -2 -54 -49 -43 -28 -46 -40 -25 -39 -24 -23 0
-12 -14 -15 -16 -19 -1 -23 -24 -25 -28 -2 -39 -40 -43 -4 -46 -49 -5 -54 -6 -9 0
-12 -2 -28 -25 -24 -23 -1 -19 -16 -15 -14 -9 -6 -5 -4 -54 -49 -43 -46 -40 -39 0
-23 -24 -25 -28 -2 -12 -39 -40 -43 -4 -14 -46 -49 -5 -15 -54 -6 -16 -9 -19 -1 0
-23 -14 -4 -43 -40 -39 -12 -2 -28 -25 -24 -1 -19 -16 -15 -9 -6 -5 -54 -49 -46 0
-39 -40 -43 -4 -14 -23 -46 -49 -5 -15 -24 -54 -6 -16 -25 -9 -19 -28 -1 -2 -12 0
-39 -24 -15 -5 -49 -46 -23 -14 -4 -43 -40 -12 -2 -28 -25 -1 -19 -16 -9 -6 -54 0
-46 -49 -5 -15 -24 -39 -54 -6 -16 -25 -40 -9 -19 -28 -43 -1 -2 -4 -12 -14 -23 0
-46 -40 -25 -16 -6 -54 -39 -24 -15 -5 -49 -23 -14 -4 -43 -12 -2 -28 -1 -19 -9 0
-54 -6 -16 -25 -40 -46 -9 -19 -28 -43 -49 -1 -2 -4 -5 -12 -14 -15 -23 -24 -39 0
-9 -19 -28 -43 -49 -54 -1 -2 -4 -5 -6 -12 -14 -15 -16 -23 -24 -25 -39 -40 -46 0
-54 -49 -43 -28 -19 -9 -46 -40 -25 -16 -6 -39 -24 -15 -5 -23 -14 -4 -12 -2 -1 0
-1 -2 -4 -5 -6 -10 -12 -14 -15 -16 -20 -23 -24 -25 -29 -39 -40 -44 -46 -50 -55 0
-10 -6 -5 -4 -2 -1 -55 -50 -44 -29 -20 -46 -40 -25 -16 -39 -24 -15 -23 -14 -12 0
-1 -20 -16 -15 -14 -12 -10 -6 -5 -4 -2 -55 -50 -44 -29 -46 -40 -25 -39 -24 -23 0
-12 -14 -15 -16 -20 -1 -23 -24 -25 -29 -2 -39 -40 -44 -4 -46 -50 -5 -55 -6 -10 0
-12 -2 -29 -25 -24 -23 -1 -20 -16 -15 -14 -10 -6 -5 -4 -55 -50 -44 -46 -40 -39 0
-23 -24 -25 -29 -2 -12 -39 -40 -44 -4 -14 -46 -50 -5 -15 -55 -6 -16 -10 -20 -1 0
-23 -14 -4 -44 -40 -39 -12 -2 -29 -25 -24 -1 -20 -16 -15 -10 -6 -5 -55 -50 -46 0
-39 -40 -44 -4 -14 -23 -46 -50 -5 -15 -24 -55 -6 -16 -25 -10 -20 -29 -1 -2 -12 0
-39 -24 -15 -5 -50 -46 -23 -14 -4 -44 -40 -12 -2 -29 -25 -1 -20 -16 -10 -6 -55 0
-46 -50 -5 -15 -24 -39 -55 -6 -16 -25 -40 -10 -20 -29 -44 -1 -2 -4 -12 -14 -23 0
-46 -40 -25 -16 -6 -55 -39 -24 -15 -5 -50 -23 -14 -4 -44 -12 -2 -29 -1 -20 -10 0
-55 -6 -16 -25 -40 -46 -10 -20 -29 -44 -50 -1 -2 -4 -5 -12 -14 -15 -23 -24 -39 0
-10 -20 -29 -44 -50 -55 -1 -2 -4 -5 -6 -12 -14 -15 -16 -23 -24 -25 -39 -40 -46 0
-55 -50 -44 -29 -20 -10 -46 -40 -25 -16 -6 -39 -24 -15 -5 -23 -14 -4 -12 -2 -1 0
-1 -2 -4 -5 -6 -11 -12 -14 -15 -16 -21 -23 -24 -25 -30 -39 -40 -45 -46 -51 -56 0
-11 -6 -5 -4 -2 -1 -56 -51 -45 -30 -21 -46 -40 -25 -16 -39 -24 -15 -23 -14 -12 0
-1 -21 -16 -15 -14 -12 -11 -6 -5 -4 -2 -56 -51 -45 -30 -46 -40 -25 -39 -24 -23 0
-12 -14 -15 -16 -21 -1 -23 -24 -25 -30 -2 -39 -40 -45 -4 -46 -51 -5 -56 -6 -11 0
-12 -2 -30 -25 -24 -23 -1 -21 -16 -15 -14 -11 -6 -5 -4 -56 -51 -45 -46 -40 -39 0
-23 -24 -25 -30 -2 -12 -39 -40 -45 -4 -14 -46 -51 -5 -15 -56 -6 -16 -11 -21 -1 0
-23 -14 -4 -45 -40 -39 -12 -2 -30 -25 -24 -1 -21 -16 -15 -11 -6 -5 -56 -51 -46 0
-39 -40 -45 -4 -14 -23 -46 -51 -5 -15 -24 -56 -6 -16 -25 -11 -21 -30 -1 -2 -12 0
-39 -24 -15 -5 -51 -46 -23 -14 -4 -45 -40 -12 -2 -30 -25 -1 -21 -16 -11 -6 -56 0
-46 -51 -5 -15 -24 -39 -56 -6 -16 -25 -40 -11 -21 -30 -45 -1 -2 -4 -12 -14 -23 0
-46 -40 -25 -16 -6 -56 -39 -24 -15 -5 -51 -23 -14 -4 -45 -12 -2 -30 -1 -21 -11 0
-56 -6 -16 -25 -40 -46 -11 -21 -30 -45 -51 -1 -2 -4 -5 -12 -14 -15 -23 -24 -39 0
-11 -21 -30 -45 -51 -56 -1 -2 -4 -5 -6 -12 -14 -15 -16 -23 -24 -25 -39 -40 -46 0
-56 -51 -45 -30 -21 -11 -46 -40 -25 -16 -6 -39 -24 -15 -5 -23 -14 -4 -12 -2 -1 0
-1 -2 -4 -5 -7 -8 -12 -14 -15 -17 -18 -23 -24 -26 -27 -39 -41 -42 -47 -48 -57 0
-8 -7 -5 -4 -2 -1 -57 -48 -42 -27 -18 -47 -41 -26 -17 -39 -24 -15 -23 -14 -12 0
-1 -18 -17 -15 -14 -12 -8 -7 -5 -4 -2 -57 -48 -42 -27 -47 -41 -26 -39 -24 -23 0
-12 -14 -15 -17 -18 -1 -23 -24 -26 -27 -2 -39 -41 -42 -4 -47 -48 -5 -57 -7 -8 0
-12 -2 -27 -26 -24 -23 -1 -18 -17 -15 -14 -8 -7 -5 -4 -57 -48 -42 -47 -41 -39 0
-23 -24 -26 -27 -2 -12 -39 -41 -42 -4 -14 -47 -48 -5 -15 -57 -7 -17 -8 -18 -1 0
-23 -14 -4 -42 -41 -39 -12 -2 -27 -26 -24 -1 -18 -17 -15 -8 -7 -5 -57 -48 -47 0
-39 -41 -42 -4 -14 -23 -47 -48 -5 -15 -24 -57 -7 -17 -26 -8 -18 -27 -1 -2 -12 0
-39 -24 -15 -5 -48 -47 -23 -14 -4 -42 -41 -12 -2 -27 -26 -1 -18 -17 -8 -7 -57 0
-47 -48 -5 -15 -24 -39 -57 -7 -17 -26 -41 -8 -18 -27 -42 -1 -2 -4 -12 -14 -23 0
-47 -41 -26 -17 -7 -57 -39 -24 -15 -5 -48 -23 -14 -4 -42 -12 -2 -27 -1 -18 -8 0
-57 -7 -17 -26 -41 -47 -8 -18 -27 -42 -48 -1 -2 -4 -5 -12 -14 -15 -23 -24 -39 0
-8 -18 -27 -42 -48 -57 -1 -2 -4 -5 -7 -12 -14 -15 -17 -23 -24 -26 -39 -41 -47 0
-57 -48 -42 -27 -18 -8 -47 -41 -26 -17 -7 -39 -24 -15 -5 -23 -14 -4 -12 -2 -1 0
-1 -2 -4 -5 -7 -9 -12 -14 -15 -17 -19 -23 -24 -26 -28 -39 -41 -43 -47 -49 -58 0
-9 -7 -5 -4 -2 -1 -58 -49 -43 -28 -19 -47 -41 -26 -17 -39 -24 -15 -23 -14 -12 0
-1 -19 -17 -15 -14 -12 -9 -7 -5 -4 -2 -58 -49 -43 -28 -47 -41 -26 -39 -24 -23 0
-12 -14 -15 -17 -19 -1 -23 -24 -26 -28 -2 -39 -41 -43 -4 -47 -49 -5 -58 -7 -9 0
-12 -2 -28 -26 -24 -23 -1 -19 -17 -15 -14 -9 -7 -5 -4 -58 -49 -43 -47 -41 -39 0
-23 -24 -26 -28 -2 -12 -39 -41 -43 -4 -14 -47 -49 -5 -15 -58 -7 -17 -9 -19 -1 0
-23 -14 -4 -43 -41 -39 -12 -2 -28 -26 -24 -1 -19 -17 -15 -9 -7 -5 -58 -49 -47 0
-39 -41 -43 -4 -14 -23 -47 -49 -5 -15 -24 -58 -7 -17 -26 -9 -19 -28 -1 -2 -12 0
-39 -24 -15 -5 -49 -47 -23 -14 -4 -43 -41 -12 -2 -28 -26 -1 -19 -17 -9 -7 -58 0
-47 -49 -5 -15 -24 -39 -58 -7 -17 -26 -41 -9 -19 -28 -43 -1 -2 -4 -12 -14 -23 0
-47 -41 -26 -17 -7 -58 -39 -24 -15 -5 -49 -23 -14 -4 -43 -12 -2 -28 -1 -19 -9 0
-58 -7 -17 -26 -41 -47 -9 -19 -28 -43 -49 -1 -2 -4 -5 -12 -14 -15 -23 -24 -39 0
-9 -19 -28 -43 -49 -58 -1 -2 -4 -5 -7 -12 -14 -15 -17 -23 -24 -26 -39 -41 -47 0
-58 -49 -43 -28 -19 -9 -47 -41 -26 -17 -7 -39 -24 -15 -5 -23 -14 -4 -12 -2 -1 0
-1 -2 -4 -5 -7 -10 -12 -14 -15 -17 -20 -23 -24 -26 -29 -39 -41 -44 -47 -50 -59 0
-10 -7 -5 -4 -2 -1 -59 -50 -44 -29 -20 -47 -41 -26 -17 -39 -24 -15 -23 -14 -12 0
-1 -20 -17 -15 -14 -12 -10 -7 -5 -4 -2 -59 -50 -44 -29 -47 -41 -26 -39 -24 -23 0
-12 -14 -15 -17 -20 -1 -23 -24 -26 -29 -2 -39 -41 -44 -4 -47 -50 -5 -59 -7 -10 0
-12 -2 -29 -26 -24 -23 -1 -20 -17 -15 -14 -10 -7 -5 -4 -59 -50 -44 -47 -41 -39 0
-23 -24 -26 -29 -2 -12 -39 -41 -44 -4 -14 -47 -50 -5 -15 -59 -7 -17 -10 -20 -1 0
-23 -14 -4 -44 -41 -39 -12 -2 -29 -26 -24 -1 -20 -17 -15 -10 -7 -5 -59 -50 -47 0
-39 -41 -44 -4 -14 -23 -47 -50 -5 -15 -24 -59 -7 -17 -26 -10 -20 -29 -1 -2 -12 0
-39 -24 -15 -5 -50 -47 -23 -14 -4 -44 -41 -12 -2 -29 -26 -1 -20 -17 -10 -7 -59 0
-47 -50 -5 -15 -24 -39 -59 -7 -17 -26 -41 -10 -20 -29 -44 -1 -2 -4 -12 -14 -23 0
-47 -41 -26 -17 -7 -59 -39 -24 -15 -5 -50 -23 -14 -4 -44 -12 -2 -29 -1 -20 -10 0
-59 -7 -17 -26 -41 -47 -10 -20 -29 -44 -50 -1 -2 -4 -5 -12 -14 -15 -23 -24 -39 0
-10 -20 -29 -44 -50 -59 -1 -2 -4 -5 -7 -12 -14 -15 -17 -23 -24 -26 -39 -41 -47 0
-59 -50 -44 -29 -20 -10 -47 -41 -26 -17 -7 -39 -24 -15 -5 -23 -14 -4 -12 -2 -1 0
-1 -2 -4 -5 -7 -11 -12 -14 -15 -17 -21 -23 -24 -26 -30 -39 -41 -45 -47 -51 -60 0
-11 -7 -5 -4 -2 -1 -60 -51 -45 -30 -21 -47 -41 -26 -17 -39 -24 -15 -23 -14 -12 0
-1 -21 -17 -15 -14 -12 -11 -7 -5 -4 -2 -60 -51 -45 -30 -47 -41 -26 -39 -24 -23 0
-12 -14 -15 -17 -21 -1 -23 -24 -26 -30 -2 -39 -41 -45 -4 -47 -51 -5 -60 -7 -11 0
-12 -2 -30 -26 -24 -23 -1 -21 -17 -15 -14 -11 -7 -5 -4 -60 -51 -45 -47 -41 -39 0
-23 -24 -26 -30 -2 -12 -39 -41 -45 -4 -14 -47 -51 -5 -15 -60 -7 -17 -11 -21 -1 0
-23 -14 -4 -45 -41 -39 -12 -2 -30 -26 -24 -1 -21 -17 -15 -11 -7 -5 -60 -51 -47 0
-39 -41 -45 -4 -14 -23 -47 -51 -5 -15 -24 -60 -7 -17 -26 -11 -21 -30 -1 -2 -12 0
-39 -24 -15 -5 -51 -47 -23 -14 -4 -45 -41 -12 -2 -30 -26 -1 -21 -17 -11 -7 -60 0
-47 -51 -5 -15 -24 -39 -60 -7 -17 -26 -41 -11 -21 -30 -45 -1 -2 -4 -12 -14 -23 0
-47 -41 -26 -17 -7 -60 -39 -24 -15 -5 -51 -23 -14 -4 -45 -12 -2 -30 -1 -21 -11 0
-60 -7 -17 -26 -41 -47 -11 -21 -30 -45 -51 -1 -2 -4 -5 -12 -14 -15 -23 -24 -39 0
-11 -21 -30 -45 -51 -60 -1 -2 -4 -5 -7 -12 -14 -15 -17 -23 -24 -26 -39 -41 -47 0
-60 -51 -45 -30 -21 -11 -47 -41 -26 -17 -7 -39 -24 -15 -5 -23 -14 -4 -12 -2 -1 0
-1 -2 -4 -5 -8 -9 -12 -14 -15 -18 -19 -23 -24 -27 -28 -39 -42 -43 -48 -49 -61 0
-9 -8 -5 -4 -2 -1 -61 -49 -43 -28 -19 -48 -42 -27 -18 -39 -24 -15 -23 -14 -12 0
-1 -19 -18 -15 -14 -12 -9 -8 -5 -4 -2 -61 -49 -43 -28 -48 -42 -27 -39 -24 -23 0
-12 -14 -15 -18 -19 -1 -23 -24 -27 -28 -2 -39 -42 -43 -4 -48 -49 -5 -61 -8 -9 0
-12 -2 -28 -27 -24 -23 -1 -19 -18 -15 -14 -9 -8 -5 -4 -61 -49 -43 -48 -42 -39 0
-23 -24 -27 -28 -2 -12 -39 -42 -43 -4 -14 -48 -49 -5 -15 -61 -8 -18 -9 -19 -1 0
-23 -14 -4 -43 -42 -39 -12 -2 -28 -27 -24 -1 -19 -18 -15 -9 -8 -5 -61 -49 -48 0
-39 -42 -43 -4 -14 -23 -48 -49 -5 -15 -24 -61 -8 -18 -27 -9 -19 -28 -1 -2 -12 0
-39 -24 -15 -5 -49 -48 -23 -14 -4 -43 -42 -12 -2 -28 -27 -1 -19 -18 -9 -8 -61 0
-48 -49 -5 -15 -24 -39 -61 -8 -18 -27 -42 -9 -19 -28 -43 -1 -2 -4 -12 -14 -23 0
-48 -42 -27 -18 -8 -61 -39 -24 -15 -5 -49 -23 -14 -4 -43 -12 -2 -28 -1 -19 -9 0
-61 -8 -18 -27 -42 -48 -9 -19 -28 -43 -49 -1 -2 -4 -5 -12 -14 -15 -23 -24 -39 0
-9 -19 -28 -43 -49 -61 -1 -2 -4 -5 -8 -12 -14 -15 -18 -23 -24 -27 -39 -42 -48 0
-61 -49 -43 -28 -19 -9 -48 -42 -27 -18 -8 -39 -24 -15 -5 -23 -14 -4 -12 -2 -1 0
-1 -2 -4 -5 -8 -10 -12 -14 -15 -18 -20 -23 -24 -27 -29 -39 -42 -44 -48 -50 -62 0
-10 -8 -5 -4 -2 -1 -62 -50 -44 -29 -20 -48 -42 -27 -18 -39 -24 -15 -23 -14 -12 0
-1 -20 -18 -15 -14 -12 -10 -8 -5 -4 -2 -62 -50 -44 -29 -48 -42 -27 -39 -24 -23 0
-12 -14 -15 -18 -20 -1 -23 -24 -27 -29 -2 -39 -42 -44 -4 -48 -50 -5 -62 -8 -10 0
-12 -2 -29 -27 -24 -23 -1 -20 -18 -15 -14 -10 -8 -5 -4 -62 -50 -44 -48 -42 -39 0
-23 -24 -27 -29 -2 -12 -39 -42 -44 -4 -14 -48 -50 -5 -15 -62 -8 -18 -10 -20 -1 0
-23 -14 -4 -44 -42 -39 -12 -2 -29 -27 -24 -1 -20 -18 -15 -10 -8 -5 -62 -50 -48 0
-39 -42 -44 -4 -14 -23 -48 -50 -5 -15 -24 -62 -8 -18 -27 -10 -20 -29 -1 -2 -12 0
-39 -24 -15 -5 -50 -48 -23 -14 -4 -44 -42 -12 -2 -29 -27 -1 -20 -18 -10 -8 -62 0
-48 -50 -5 -15 -24 -39 -62 -8 -18 -27 -42 -10 -20 -29 -44 -1 -2 -4 -12 -14 -23 0
-48 -42 -27 -18 -8 -62 -39 -24 -15 -5 -50 -23 -14 -4 -44 -12 -2 -29 -1 -20 -10 0
-62 -8 -18 -27 -42 -48 -10 -20 -29 -44 -50 -1 -2 -4 -5 -12 -14 -15 -23 -24 -39 0
-10 -20 -29 -44 -50 -62 -1 -2 -4 -5 -8 -12 -14 -15 -18 -23 -24 -27 -39 -42 -48 0
-62 -50 -44 -29 -20 -10 -48 -42 -27 -18 -8 -39 -24 -15 -5 -23 -14 -4 -12 -2 -1 0
-1 -2 -4 -5 -8 -11 -12 -14 -15 -18 -21 -23 -24 -27 -30 -39 -42 -45 -48 -51 -63 0
-11 -8 -5 -4 -2 -1 -63 -51 -45 -30 -21 -48 -42 -27 -18 -39 -24 -15 -23 -14 -12 0
-1 -21 -18 -15 -14 -12 -11 -8 -5 -4 -2 -63 -51 -45 -30 -48 -42 -27 -39 -24 -23 0
-12 -14 -15 -18 -21 -1 -23 -24 -27 -30 -2 -39 -42 -45 -4 -48 -51 -5 -63 -8 -11 0
-12 -2 -30 -27 -24 -23 -1 -21 -18 -15 -14 -11 -8 -5 -4 -63 -51 -45 -48 -42 -39 0
-23 -24 -27 -30 -2 -12 -39 -42 -45 -4 -14 -48 -51 -5 -15 -63 -8 -18 -11 -21 -1 0
-23 -14 -4 -45 -42 -39 -12 -2 -30 -27 -24 -1 -21 -18 -15 -11 -8 -5 -63 -51 -48 0
-39 -42 -45 -4 -14 -23 -48 -51 -5 -15 -24 -63 -8 -18 -27 -11 -21 -30 -1 -2 -12 0
-39 -24 -15 -5 -51 -48 -23 -14 -4 -45 -42 -12 -2 -30 -27 -1 -21 -18 -11 -8 -63 0
-48 -51 -5 -15 -24 -39 -63 -8 -18 -27 -42 -11 -21 -30 -45 -1 -2 -4 -12 -14 -23 0
-48 -42 -27 -18 -8 -63 -39 -24 -15 -5 -51 -23 -14 -4 -45 -12 -2 -30 -1 -21 -11 0
-63 -8 -18 -27 -42 -48 -11 -21 -30 -45 -51 -1 -2 -4 -5 -12 -14 -15 -23 -24 -39 0
-11 -21 -30 -45 -51 -63 -1 -2 -4 -5 -8 -12 -14 -15 -18 -23 -24 -27 -39 -42 -48 0
-63 -51 -45 -30 -21 -11 -48 -42 -27 -18 -8 -39 -24 -15 -5 -23 -14 -4 -12 -2 -1 0
-1 -2 -4 -5 -9 -10 -12 -14 -15 -19 -20 -23 -24 -28 -29 -39 -43 -44 -49 -50 -64 0
-10 -9 -5 -4 -2 -1 -64 -50 -44 -29 -20 -49 -43 -28 -19 -39 -24 -15 -23 -14 -12 0
-1 -20 -19 -15 -14 -12 -10 -9 -5 -4 -2 -64 -50 -44 -29 -49 -43 -28 -39 -24 -23 0
-12 -14 -15 -19 -20 -1 -23 -24 -28 -29 -2 -39 -43 -44 -4 -49 -50 -5 -64 -9 -10 0
-12 -2 -29 -28 -24 -23 -1 -20 -19 -15 -14 -10 -9 -5 -4 -64 -50 -44 -49 -43 -39 0
-23 -24 -28 -29 -2 -12 -39 -43 -44 -4 -14 -49 -50 -5 -15 -64 -9 -19 -10 -20 -1 0
-23 -14 -4 -44 -43 -39 -12 -2 -29 -28 -24 -1 -20 -19 -15 -10 -9 -5 -64 -50 -49 0
-39 -43 -44 -4 -14 -23 -49 -50 -5 -15 -24 -64 -9 -19 -28 -10 -20 -29 -1 -2 -12 0
-39 -24 -15 -5 -50 -49 -23 -14 -4 -44 -43 -12 -2 -29 -28 -1 -20 -19 -10 -9 -64 0
-49 -50 -5 -15 -24 -39 -64 -9 -19 -28 -43 -10 -20 -29 -44 -1 -2 -4 -12 -14 -23 0
-49 -43 -28 -19 -9 -64 -39 -24 -15 -5 -50 -23 -14 -4 -44 -12 -2 -29 -1 -20 -10 0
-64 -9 -19 -28 -43 -49 -10 -20 -29 -44 -50 -1 -2 -4 -5 -12 -14 -15 -23 -24 -39 0
-10 -20 -29 -44 -50 -64 -1 -2 -4 -5 -9 -12 -14 -15 -19 -23 -24 -28 -39 -43 -49 0
-64 -50 -44 -29 -20 -10 -49 -43 -28 -19 -9 -39 -24 -15 -5 -23 -14 -4 -12 -2 -1 0
-1 -2 -4 -5 -9 -11 -12 -14 -15 -19 -21 -23 -24 -28 -30 -39 -43 -45 -49 -51 -65 0
-11 -9 -5 -4 -2 -1 -65 -51 -45 -30 -21 -49 -43 -28 -19 -39 -24 -15 -23 -14 -12 0
-1 -21 -19 -15 -14 -12 -11 -9 -5 -4 -2 -65 -51 -45 -30 -49 -43 -28 -39 -24 -23 0
-12 -14 -15 -19 -21 -1 -23 -24 -28 -30 -2 -39 -43 -45 -4 -49 -51 -5 -65 -9 -11 0
-12 -2 -30 -28 -24 -23 -1 -21 -19 -15 -14 -11 -9 -5 -4 -65 -51 -45 -49 -43 -39 0
-23 -24 -28 -30 -2 -12 -39 -43 -45 -4 -14 -49 -51 -5 -15 -65 -9 -19 -11 -21 -1 0
-23 -14 -4 -45 -43 -39 -12 -2 -30 -28 -24 -1 -21 -19 -15 -11 -9 -5 -65 -51 -49 0
-39 -43 -45 -4 -14 -23 -49 -51 -5 -15 -24 -65 -9 -19 -28 -11 -21 -30 -1 -2 -12 0
-39 -24 -15 -5 -51 -49 -23 -14 -4 -45 -43 -12 -2 -30 -28 -1 -21 -19 -11 -9 -65 0
-49 -51 -5 -15 -24 -39 -65 -9 -19 -28 -43 -11 -21 -30 -45 -1 -2 -4 -12 -14 -23 0
-49 -43 -28 -19 -9 -65 -39 -24 -15 -5 -51 -23 -14 -4 -45 -12 -2 -30 -1 -21 -11 0
-65 -9 -19 -28 -43 -49 -11 -21 -30 -45 -51 -1 -2 -4 -5 -12 -14 -15 -23 -24 -39 0
-11 -21 -30 -45 -51 -65 -1 -2 -4 -5 -9 -12 -14 -15 -19 -23 -24 -28 -39 -43 -49 0
-65 -51 -45 -30 -21 -11 -49 -43 -28 -19 -9 -39 -24 -15 -5 -23 -14 -4 -12 -2 -1 0
-1 -2 -4 -5 -10 -11 -12 -14 -15 -20 -21 -23 -24 -29 -30 -39 -44 -45 -50 -51 -66 0
-11 -10 -5 -4 -2 -1 -66 -51 -45 -30 -21 -50 -44 -29 -20 -39 -24 -15 -23 -14 -12 0
-1 -21 -20 -15 -14 -12 -11 -10 -5 -4 -2 -66 -51 -45 -30 -50 -44 -29 -39 -24 -23 0
-12 -14 -15 -20 -21 -1 -23 -24 -29 -30 -2 -39 -44 -45 -4 -50 -51 -5 -66 -10 -11 0
-12 -2 -30 -29 -24 -23 -1 -21 -20 -15 -14 -11 -10 -5 -4 -66 -51 -45 -50 -44 -39 0
-23 -24 -29 -30 -2 -12 -39 -44 -45 -4 -14 -50 -51 -5 -15 -66 -10 -20 -11 -21 -1 0
-23 -14 -4 -45 -44 -39 -12 -2 -30 -29 -24 -1 -21 -20 -15 -11 -10 -5 -66 -51 -50 0
-39 -44 -45 -4 -14 -23 -50 -51 -5 -15 -24 -66 -10 -20 -29 -11 -21 -30 -1 -2 -12 0
-39 -24 -15 -5 -51 -50 -23 -14 -4 -45 -44 -12 -2 -30 -29 -1 -21 -20 -11 -10 -66 0
-50 -51 -5 -15 -24 -39 -66 -10 -20 -29 -44 -11 -21 -30 -45 -1 -2 -4 -12 -14 -23 0
-50 -44 -29 -20 -10 -66 -39 -24 -15 -5 -51 -23 -14 -4 -45 -12 -2 -30 -1 -21 -11 0
-66 -10 -20 -29 -44 -50 -11 -21 -30 -45 -51 -1 -2 -4 -5 -12 -14 -15 -23 -24 -39 0
-11 -21 -30 -45 -51 -66 -1 -2 -4 -5 -10 -12 -14 -15 -20 -23 -24 -29 -39 -44 -50 0
-66 -51 -45 -30 -21 -11 -50 -44 -29 -20 -10 -39 -24 -15 -5 -23 -14 -4 -12 -2 -1 0
-1 -2 -4 -6 -7 -8 -12 -14 -16 -17 -18 -23 -25 -26 -27 -40 -41 -42 -52 -53 -57 0
-8 -7 -6 -4 -2 -1 -57 -53 -42 -27 -18 -52 -41 -26 -17 -40 -25 -16 -23 -14 -12 0
-1 -18 -17 -16 -14 -12 -8 -7 -6 -4 -2 -57 -53 -42 -27 -52 -41 -26 -40 -25 -23 0
-12 -14 -16 -17 -18 -1 -23 -25 -26 -27 -2 -40 -41 -42 -4 -52 -53 -6 -57 -7 -8 0
-12 -2 -27 -26 -25 -23 -1 -18 -17 -16 -14 -8 -7 -6 -4 -57 -53 -42 -52 -41 -40 0
-23 -25 -26 -27 -2 -12 -40 -41 -42 -4 -14 -52 -53 -6 -16 -57 -7 -17 -8 -18 -1 0
-23 -14 -4 -42 -41 -40 -12 -2 -27 -26 -25 -1 -18 -17 -16 -8 -7 -6 -57 -53 -52 0
-40 -41 -42 -4 -14 -23 -52 -53 -6 -16 -25 -57 -7 -17 -26 -8 -18 -27 -1 -2 -12 0
-40 -25 -16 -6 -53 -52 -23 -14 -4 -42 -41 -12 -2 -27 -26 -1 -18 -17 -8 -7 -57 0
-52 -53 -6 -16 -25 -40 -57 -7 -17 -26 -41 -8 -18 -27 -42 -1 -2 -4 -12 -14 -23 0
-52 -41 -26 -17 -7 -57 -40 -25 -16 -6 -53 -23 -14 -4 -42 -12 -2 -27 -1 -18 -8 0
-57 -7 -17 -26 -41 -52 -8 -18 -27 -42 -53 -1 -2 -4 -6 -12 -14 -16 -23 -25 -40 0
-8 -18 -27 -42 -53 -57 -1 -2 -4 -6 -7 -12 -14 -16 -17 -23 -25 -26 -40 -41 -52 0
-57 -53 -42 -27 -18 -8 -52 -41 -26 -17 -7 -40 -25 -16 -6 -23 -14 -4 -12 -2 -1 0
-1 -2 -4 -6 -7 -9 -12 -14 -16 -17 -19 -23 -25 -26 -28 -40 -41 -43 -52 -54 -58 0
-9 -7 -6 -4 -2 -1 -58 -54 -43 -28 -19 -52 -41 -26 -17 -40 -25 -16 -23 -14 -12 0
-1 -19 -17 -16 -14 -12 -9 -7 -6 -4 -2 -58 -54 -43 -28 -52 -41 -26 -40 -25 -23 0
-12 -14 -16 -17 -19 -1 -23 -25 -26 -28 -2 -40 -41 -43 -4 -52 -54 -6 -58 -7 -9 0
-12 -2 -28 -26 -25 -23 -1 -19 -17 -16 -14 -9 -7 -6 -4 -58 -54 -43 -52 -41 -40 0
-23 -25 -26 -28 -2 -12 -40 -41 -43 -4 -14 -52 -54 -6 -16 -58 -7 -17 -9 -19 -1 0
-23 -14 -4 -43 -41 -40 -12 -2 -28 -26 -25 -1 -19 -17 -16 -9 -7 -6 -58 -54 -52 0
-40 -41 -43 -4 -14 -23 -52 -54 -6 -16 -25 -58 -7 -17 -26 -9 -19 -28 -1 -2 -12 0
-40 -25 -16 -6 -54 -52 -23 -14 -4 -43 -41 -12 -2 -28 -26 -1 -19 -17 -9 -7 -58 0
-52 -54 -6 -16 -25 -40 -58 -7 -17 -26 -41 -9 -19 -28 -43 -1 -2 -4 -12 -14 -23 0
-52 -41 -26 -17 -7 -58 -40 -25 -16 -6 -54 -23 -14 -4 -43 -12 -2 -28 -1 -19 -9 0
-58 -7 -17 -26 -41 -52 -9 -19 -28 -43 -54 -1 -2 -4 -6 -12 -14 -16 -23 -25 -40 0
-9 -19 -28 -43 -54 -58 -1 -2 -4 -6 -7 -12 -14 -16 -17 -23 -25 -26 -40 -41 -52 0
-58 -54 -43 -28 -19 -9 -52 -41 -26 -17 -7 -40 -25 -16 -6 -23 -14 -4 -12 -2 -1 0
-1 -2 -4 -6 -7 -10 -12 -14 -16 -17 -20 -23 -25 -26 -29 -40 -41 -44 -52 -55 -59 0
-10 -7 -6 -4 -2 -1 -59 -55 -44 -29 -20 -52 -41 -26 -17 -40 -25 -16 -23 -14 -12 0
-1 -20 -17 -16 -14 -12 -10 -7 -6 -4 -2 -59 -55 -44 -29 -52 -41 -26 -40 -25 -23 0
-12 -14 -16 -17 -20 -1 -23 -25 -26 -29 -2 -40 -41 -44 -4 -52 -55 -6 -59 -7 -10 0
-12 -2 -29 -26 -25 -23 -1 -20 -17 -16 -14 -10 -7 -6 -4 -59 -55 -44 -52 -41 -40 0
-23 -25 -26 -29 -2 -12 -40 -41 -44 -4 -14 -52 -55 -6 -16 -59 -7 -17 -10 -20 -1 0
-23 -14 -4 -44 -41 -40 -12 -2 -29 -26 -25 -1 -20 -17 -16 -10 -7 -6 -59 -55 -52 0
-40 -41 -44 -4 -14 -23 -52 -55 -6 -16 -25 -59 -7 -17 -26 -10 -20 -29 -1 -2 -12 0
-40 -25 -16 -6 -55 -52 -23 -14 -4 -44 -41 -12 -2 -29 -26 -1 -20 -17 -10 -7 -59 0
-52 -55 -6 -16 -25 -40 -59 -7 -17 -26 -41 -10 -20 -29 -44 -1 -2 -4 -12 -14 -23 0
-52 -41 -26 -17 -7 -59 -40 -25 -16 -6 -55 -23 -14 -4 -44 -12 -2 -29 -1 -20 -10 0
-59 -7 -17 -26 -41 -52 -10 -20 -29 -44 -55 -1 -2 -4 -6 -12 -14 -16 -23 -25 -40 0
-10 -20 -29 -44 -55 -59 -1 -2 -4 -6 -7 -12 -14 -16 -17 -23 -25 -26 -40 -41 -52 0
-59 -55 -44 -29 -20 -10 -52 -41 -26 -17 -7 -40 -25 -16 -6 -23 -14 -4 -12 -2 -1 0
-1 -2 -4 -6 -7 -11 -12 -14 -16 -17 -21 -23 -25 -26 -30 -40 -41 -45 -52 -56 -60 0
-11 -7 -6 -4 -2 -1 -60 -56 -45 -30 -21 -52 -41 -26 -17 -40 -25 -16 -23 -14 -12 0
-1 -21 -17 -16 -14 -12 -11 -7 -6 -4 -2 -60 -56 -45 -30 -52 -41 -26 -40 -25 -23 0
-12 -14 -16 -17 -21 -1 -23 -25 -26 -30 -2 -40 -41 -45 -4 -52 -56 -6 -60 -7 -11 0
-12 -2 -30 -26 -25 -23 -1 -21 -17 -16 -14 -11 -7 -6 -4 -60 -56 -45 -52 -41 -40 0
-23 -25 -26 -30 -2 -12 -40 -41 -45 -4 -14 -52 -56 -6 -16 -60 -7 -17 -11 -21 -1 0
-23 -14 -4 -45 -41 -40 -12 -2 -30 -26 -25 -1 -21 -17 -16 -11 -7 -6 -60 -56 -52 0
-40 -41 -45 -4 -14 -23 -52 -56 -6 -16 -25 -60 -7 -17 -26 -11 -21 -30 -1 -2 -12 0
-40 -25 -16 -6 -56 -52 -23 -14 -4 -45 -41 -12 -2 -30 -26 -1 -21 -17 -11 -7 -60 0
-52 -56 -6 -16 -25 -40 -60 -7 -17 -26 -41 -11 -21 -30 -45 -1 -2 -4 -12 -14 -23 0
-52 -41 -26 -17 -7 -60 -40 -25 -16 -6 -56 -23 -14 -4 -45 -12 -2 -30 -1 -21 -11 0
-60 -7 -17 -26 -41 -52 -11 -21 -30 -45 -56 -1 -2 -4 -6 -12 -14 -16 -23 -25 -40 0
-11 -21 -30 -45 -56 -60 -1 -2 -4 -6 -7 -12 -14 -16 -17 -23 -25 -26 -40 -41 -52 0
-60 -56 -45 -30 -21 -11 -52 -41 -26 -17 -7 -40 -25 -16 -6 -23 -14 -4 -12 -2 -1 0
-1 -2 -4 -6 -8 -9 -12 -14 -16 -18 -19 -23 -25 -27 -28 -40 -42 -43 -53 -54 -61 0
-9 -8 -6 -4 -2 -1 -61 -54 -43 -28 -19 -53 -42 -27 -18 -40 -25 -16 -23 -14 -12 0
-1 -19 -18 -16 -14 -12 -9 -8 -6 -4 -2 -61 -54 -43 -28 -53 -42 -27 -40 -25 -23 0
-12 -14 -16 -18 -19 -1 -23 -25 -27 -28 -2 -40 -42 -43 -4 -53 -54 -6 -61 -8 -9 0
-12 -2 -28 -27 -25 -23 -1 -19 -18 -16 -14 -9 -8 -6 -4 -61 -54 -43 -53 -42 -40 0
-23 -25 -27 -28 -2 -12 -40 -42 -43 -4 -14 -53 -54 -6 -16 -61 -8 -18 -9 -19 -1 0
-23 -14 -4 -43 -42 -40 -12 -2 -28 -27 -25 -1 -19 -18 -16 -9 -8 -6 -61 -54 -53 0
-40 -42 -43 -4 -14 -23 -53 -54 -6 -16 -25 -61 -8 -18 -27 -9 -19 -28 -1 -2 -12 0
-40 -25 -16 -6 -54 -53 -23 -14 -4 -43 -42 -12 -2 -28 -27 -1 -19 -18 -9 -8 -61 0
-53 -54 -6 -16 -25 -40 -61 -8 -18 -27 -42 -9 -19 -28 -43 -1 -2 -4 -12 -14 -23 0
-53 -42 -27 -18 -8 -61 -40 -25 -16 -6 -54 -23 -14 -4 -43 -12 -2 -28 -1 -19 -9 0
-61 -8 -18 -27 -42 -53 -9 -19 -28 -43 -54 -1 -2 -4 -6 -12 -14 -16 -23 -25 -40 0
-9 -19 -28 -43 -54 -61 -1 -2 -4 -6 -8 -12 -14 -16 -18 -23 -25 -27 -40 -42 -53 0
-61 -54 -43 -28 -19 -9 -53 -42 -27 -18 -8 -40 -25 -16 -6 -23 -14 -4 -12 -2 -1 0
-1 -2 -4 -6 -8 -10 -12 -14 -16 -18 -20 -23 -25 -27 -29 -40 -42 -44 -53 -55 -62 0
-10 -8 -6 -4 -2 -1 -62 -55 -44 -29 -20 -53 -42 -27 -18 -40 -25 -16 -23 -14 -12 0
-1 -20 -18 -16 -14 -12 -10 -8 -6 -4 -2 -62 -55 -44 -29 -53 -42 -27 -40 -25 -23 0
-12 -14 -16 -18 -20 -1 -23 -25 -27 -29 -2 -40 -42 -44 -4 -53 -55 -6 -62 -8 -10 0
-12 -2 -29 -27 -25 -23 -1 -20 -18 -16 -14 -10 -8 -6 -4 -62 -55 -44 -53 -42 -40 0
-23 -25 -27 -29 -2 -12 -40 -42 -44 -4 -14 -53 -55 -6 -16 -62 -8 -18 -10 -20 -1 0
-23 -14 -4 -44 -42 -40 -12 -2 -29 -27 -25 -1 -20 -18 -16 -10 -8 -6 -62 -55 -53 0
-40 -42 -44 -4 -14 -23 -53 -55 -6 -16 -25 -62 -8 -18 -27 -10 -20 -29 -1 -2 -12 0
-40 -25 -16 -6 -55 -53 -23 -14 -4 -44 -42 -12 -2 -29 -27 -1 -20 -18 -10 -8 -62 0
-53 -55 -6 -16 -25 -40 -62 -8 -18 -27 -42 -10 -20 -29 -44 -1 -2 -4 -12 -14 -23 0
-53 -42 -27 -18 -8 -62 -40 -25 -16 -6 -55 -23 -14 -4 -44 -12 -2 -29 -1 -20 -10 0
-62 -8 -18 -27 -42 -53 -10 -20 -29 -44 -55 -1 -2 -4 -6 -12 -14 -16 -23 -25 -40 0
-10 -20 -29 -44 -55 -62 -1 -2 -4 -6 -8 -12 -14 -16 -18 -23 -25 -27 -40 -42 -53 0
-62 -55 -44 -29 -20 -10 -53 -42 -27 -18 -8 -40 -25 -16 -6 -23 -14 -4 -12 -2 -1 0
-1 -2 -4 -6 -8 -11 -12 -14 -16 -18 -21 -23 -25 -27 -30 -40 -42 -45 -53 -56 -63 0
-11 -8 -6 -4 -2 -1 -63 -56 -45 -30 -21 -53 -42 -27 -18 -40 -25 -16 -23 -14 -12 0
-1 -21 -18 -16 -14 -12 -11 -8 -6 -4 -2 -63 -56 -45 -30 -53 -42 -27 -40 -25 -23 0
-12 -14 -16 -18 -21 -1 -23 -25 -27 -30 -2 -40 -42 -45 -4 -53 -56 -6 -63 -8 -11 0
-12 -2 -30 -27 -25 -23 -1 -21 -18 -16 -14 -11 -8 -6 -4 -63 -56 -45 -53 -42 -40 0
-23 -25 -27 -30 -2 -12 -40 -42 -45 -4 -14 -53 -56 -6 -16 -63 -8 -18 -11 -21 -1 0
-23 -14 -4 -45 -42 -40 -12 -2 -30 -27 -25 -1 -21 -18 -16 -11 -8 -6 -63 -56 -53 0
-40 -42 -45 -4 -14 -23 -53 -56 -6 -16 -25 -63 -8 -18 -27 -11 -21 -30 -1 -2 -12 0
-40 -25 -16 -6 -56 -53 -23 -14 -4 -45 -42 -12 -2 -30 -27 -1 -21 -18 -11 -8 -63 0
-53 -56 -6 -16 -25 -40 -63 -8 -18 -27 -42 -11 -21 -30 -45 -1 -2 -4 -12 -14 -23 0
-53 -42 -27 -18 -8 -63 -40 -25 -16 -6 -56 -23 -14 -4 -45 -12 -2 -30 -1 -21 -11 0
-63 -8 -18 -27 -42 -53 -11 -21 -30 -45 -56 -1 -2 -4 -6 -12 -14 -16 -23 -25 -40 0
-11 -21 -30 -45 -56 -63 -1 -2 -4 -6 -8 -12 -14 -16 -18 -23 -25 -27 -40 -42 -53 0
-63 -56 -45 -30 -21 -11 -53 -42 -27 -18 -8 -40 -25 -16 -6 -23 -14 -4 -12 -2 -1 0
-1 -2 -4 -6 -9 -10 -12 -14 -16 -19 -20 -23 -25 -28 -29 -40 -43 -44 -54 -55 -64 0
-10 -9 -6 -4 -2 -1 -64 -55 -44 -29 -20 -54 -43 -28 -19 -40 -25 -16 -23 -14 -12 0
-1 -20 -19 -16 -14 -12 -10 -9 -6 -4 -2 -64 -55 -44 -29 -54 -43 -28 -40 -25 -23 0
-12 -14 -16 -19 -20 -1 -23 -25 -28 -29 -2 -40 -43 -44 -4 -54 -55 -6 -64 -9 -10 0
-12 -2 -29 -28 -25 -23 -1 -20 -19 -16 -14 -10 -9 -6 -4 -64 -55 -44 -54 -43 -40 0
-23 -25 -28 -29 -2 -12 -40 -43 -44 -4 -14 -54 -55 -6 -16 -64 -9 -19 -10 -20 -1 0
-23 -14 -4 -44 -43 -40 -12 -2 -29 -28 -25 -1 -20 -19 -16 -10 -9 -6 -64 -55 -54 0
-40 -43 -44 -4 -14 -23 -54 -55 -6 -16 -25 -64 -9 -19 -28 -10 -20 -29 -1 -2 -12 0
-40 -25 -16 -6 -55 -54 -23 -14 -4 -44 -43 -12 -2 -29 -28 -1 -20 -19 -10 -9 -64 0
-54 -55 -6 -16 -25 -40 -64 -9 -19 -28 -43 -10 -20 -29 -44 -1 -2 -4 -12 -14 -23 0
-54 -43 -28 -19 -9 -64 -40 -25 -16 -6 -55 -23 -14 -4 -44 -12 -2 -29 -1 -20 -10 0
-64 -9 -19 -28 -43 -54 -10 -20 -29 -44 -55 -1 -2 -4 -6 -12 -14 -16 -23 -25 -40 0
-10 -20 -29 -44 -55 -64 -1 -2 -4 -6 -9 -12 -14 -16 -19 -23 -25 -28 -40 -43 -54 0
-64 -55 -44 -29 -20 -10 -54 -43 -28 -19 -9 -40 -25 -16 -6 -23 -14 -4 -12 -2 -1 0
-1 -2 -4 -6 -9 -11 -12 -14 -16 -19 -21 -23 -25 -28 -30 -40 -43 -45 -54 -56 -65 0
-11 -9 -6 -4 -2 -1 -65 -56 -45 -30 -21 -54 -43 -28 -19 -40 -25 -16 -23 -14 -12 0
-1 -21 -19 -16 -14 -12 -11 -9 -6 -4 -2 -65 -56 -45 -30 -54 -43 -28 -40 -25 -23 0
-12 -14 -16 -19 -21 -1 -23 -25 -28 -30 -2 -40 -43 -45 -4 -54 -56 -6 -65 -9 -11 0
-12 -2 -30 -28 -25 -23 -1 -21 -19 -16 -14 -11 -9 -6 -4 -65 -56 -45 -54 -43 -40 0
-23 -25 -28 -30 -2 -12 -40 -43 -45 -4 -14 -54 -56 -6 -16 -65 -9 -19 -11 -21 -1 0
-23 -14 -4 -45 -43 -40 -12 -2 -30 -28 -25 -1 -21 -19 -16 -11 -9 -6 -65 -56 -54 0
-40 -43 -45 -4 -14 -23 -54 -56 -6 -16 -25 -65 -9 -19 -28 -11 -21 -30 -1 -2 -12 0
-40 -25 -16 -6 -56 -54 -23 -14 -4 -45 -43 -12 -2 -30 -28 -1 -21 -19 -11 -9 -65 0
-54 -56 -6 -16 -25 -40 -65 -9 -19 -28 -43 -11 -21 -30 -45 -1 -2 -4 -12 -14 -23 0
-54 -43 -28 -19 -9 -65 -40 -25 -16 -6 -56 -23 -14 -4 -45 -12 -2 -30 -1 -21 -11 0
-65 -9 -19 -28 -43 -54 -11 -21 -30 -45 -56 -1 -2 -4 -6 -12 -14 -16 -23 -25 -40 0
-11 -21 -30 -45 -56 -65 -1 -2 -4 -6 -9 -12 -14 -16 -19 -23 -25 -28 -40 -43 -54 0
-65 -56 -45 -30 -21 -11 -54 -43 -28 -19 -9 -40 -25 -16 -6 -23 -14 -4 -12 -2 -1 0
-1 -2 -4 -6 -10 -11 -12 -14 -16 -20 -21 -23 -25 -29 -30 -40 -44 -45 -55 -56 -66 0
-11 -10 -6 -4 -2 -1 -66 -56 -45 -30 -21 -55 -44 -29 -20 -40 -25 -16 -23 -14 -12 0
-1 -21 -20 -16 -14 -12 -11 -10 -6 -4 -2 -66 -56 -45 -30 -55 -44 -29 -40 -25 -23 0
-12 -14 -16 -20 -21 -1 -23 -25 -29 -30 -2 -40 -44 -45 -4 -55 -56 -6 -66 -10 -11 0
-12 -2 -30 -29 -25 -23 -1 -21 -20 -16 -14 -11 -10 -6 -4 -66 -56 -45 -55 -44 -40 0
-23 -25 -29 -30 -2 -12 -40 -44 -45 -4 -14 -55 -56 -6 -16 -66 -10 -20 -11 -21 -1 0
-23 -14 -4 -45 -44 -40 -12 -2 -30 -29 -25 -1 -21 -20 -16 -11 -10 -6 -66 -56 -55 0
-40 -44 -45 -4 -14 -23 -55 -56 -6 -16 -25 -66 -10 -20 -29 -11 -21 -30 -1 -2 -12 0
-40 -25 -16 -6 -56 -55 -23 -14 -4 -45 -44 -12 -2 -30 -29 -1 -21 -20 -11 -10 -66 0
-55 -56 -6 -16 -25 -40 -66 -10 -20 -29 -44 -11 -21 -30 -45 -1 -2 -4 -12 -14 -23 0
-55 -44 -29 -20 -10 -66 -40 -25 -16 -6 -56 -23 -14 -4 -45 -12 -2 -30 -1 -21 -11 0
-66 -10 -20 -29 -44 -55 -11 -21 -30 -45 -56 -1 -2 -4 -6 -12 -14 -16 -23 -25 -40 0
-11 -21 -30 -45 -56 -66 -1 -2 -4 -6 -10 -12 -14 -16 -20 -23 -25 -29 -40 -44 -55 0
-66 -56 -45 -30 -21 -11 -55 -44 -29 -20 -10 -40 -25 -16 -6 -23 -14 -4 -12 -2 -1 0
-1 -2 -4 -7 -8 -9 -12 -14 -17 -18 -19 -23 -26 -27 -28 -41 -42 -43 -57 -58 -61 0
-9 -8 -7 -4 -2 -1 -61 -58 -43 -28 -19 -57 -42 -27 -18 -41 -26 -17 -23 -14 -12 0
-1 -19 -18 -17 -14 -12 -9 -8 -7 -4 -2 -61 -58 -43 -28 -57 -42 -27 -41 -26 -23 0
-12 -14 -17 -18 -19 -1 -23 -26 -27 -28 -2 -41 -42 -43 -4 -57 -58 -7 -61 -8 -9 0
-12 -2 -28 -27 -26 -23 -1 -19 -18 -17 -14 -9 -8 -7 -4 -61 -58 -43 -57 -42 -41 0
-23 -26 -27 -28 -2 -12 -41 -42 -43 -4 -14 -57 -58 -7 -17 -61 -8 -18 -9 -19 -1 0
-23 -14 -4 -43 -42 -41 -12 -2 -28 -27 -26 -1 -19 -18 -17 -9 -8 -7 -61 -58 -57 0
-41 -42 -43 -4 -14 -23 -57 -58 -7 -17 -26 -61 -8 -18 -27 -9 -19 -28 -1 -2 -12 0
-41 -26 -17 -7 -58 -57 -23 -14 -4 -43 -42 -12 -2 -28 -27 -1 -19 -18 -9 -8 -61 0
-57 -58 -7 -17 -26 -41 -61 -8 -18 -27 -42 -9 -19 -28 -43 -1 -2 -4 -12 -14 -23 0
-57 -42 -27 -18 -8 -61 -41 -26 -17 -7 -58 -23 -14 -4 -43 -12 -2 -28 -1 -19 -9 0
-61 -8 -18 -27 -42 -57 -9 -19 -28 -43 -58 -1 -2 -4 -7 -12 -14 -17 -23 -26 -41 0
-9 -19 -28 -43 -58 -61 -1 -2 -4 -7 -8 -12 -14 -17 -18 -23 -26 -27 -41 -42 -57 0
-61 -58 -43 -28 -19 -9 -57 -42 -27 -18 -8 -41 -26 -17 -7 -23 -14 -4 -12 -2 -1 0
-1 -2 -4 -7 -8 -10 -12 -14 -17 -18 -20 -23 -26 -27 -29 -41 -42 -44 -57 -59 -62 0
-10 -8 -7 -4 -2 -1 -62 -59 -44 -29 -20 -57 -42 -27 -18 -41 -26 -17 -23 -14 -12 0
-1 -20 -18 -17 -14 -12 -10 -8 -7 -4 -2 -62 -59 -44 -29 -57 -42 -27 -41 -26 -23 0
-12 -14 -17 -18 -20 -1 -23 -26 -27 -29 -2 -41 -42 -44 -4 -57 -59 -7 -62 -8 -10 0
-12 -2 -29 -27 -26 -23 -1 -20 -18 -17 -14 -10 -8 -7 -4 -62 -59 -44 -57 -42 -41 0
-23 -26 -27 -29 -2 -12 -41 -42 -44 -4 -14 -57 -59 -7 -17 -62 -8 -18 -10 -20 -1 0
-23 -14 -4 -44 -42 -41 -12 -2 -29 -27 -26 -1 -20 -18 -17 -10 -8 -7 -62 -59 -57 0
-41 -42 -44 -4 -14 -23 -57 -59 -7 -17 -26 -62 -8 -18 -27 -10 -20 -29 -1 -2 -12 0
-41 -26 -17 -7 -59 -57 -23 -14 -4 -44 -42 -12 -2 -29 -27 -1 -20 -18 -10 -8 -62 0
-57 -59 -7 -17 -26 -41 -62 -8 -18 -27 -42 -10 -20 -29 -44 -1 -2 -4 -12 -14 -23 0
-57 -42 -27 -18 -8 -62 -41 -26 -17 -7 -59 -23 -14 -4 -44 -12 -2 -29 -1 -20 -10 0
-62 -8 -18 -27 -42 -57 -10 -20 -29 -44 -59 -1 -2 -4 -7 -12 -14 -17 -23 -26 -41 0
-10 -20 -29 -44 -59 -62 -1 -2 -4 -7 -8 -12 -14 -17 -18 -23 -26 -27 -41 -42 -57 0
-62 -59 -44 -29 -20 -10 -57 -42 -27 -18 -8 -41 -26 -17 -7 -23 -14 -4 -12 -2 -1 0
-1 -2 -4 -7 -8 -11 -12 -14 -17 -18 -21 -23 -26 -27 -30 -41 -42 -45 -57 -60 -63 0
-11 -8 -7 -4 -2 -1 -63 -60 -45 -30 -21 -57 -42 -27 -18 -41 -26 -17 -23 -14 -12 0
-1 -21 -18 -17 -14 -12 -11 -8 -7 -4 -2 -63 -60 -45 -30 -57 -42 -27 -41 -26 -23 0
-12 -14 -17 -18 -21 -1 -23 -26 -27 -30 -2 -41 -42 -45 -4 -57 -60 -7 -63 -8 -11 0
-12 -2 -30 -27 -26 -23 -1 -21 -18 -17 -14 -11 -8 -7 -4 -63 -60 -45 -57 -42 -41 0
-23 -26 -27 -30 -2 -12 -41 -42 -45 -4 -14 -57 -60 -7 -17 -63 -8 -18 -11 -21 -1 0
-23 -14 -4 -45 -42 -41 -12 -2 -30 -27 -26 -1 -21 -18 -17 -11 -8 -7 -63 -60 -57 0
-41 -42 -45 -4 -14 -23 -57 -60 -7 -17 -26 -63 -8 -18 -27 -11 -21 -30 -1 -2 -12 0
-41 -26 -17 -7 -60 -57 -23 -14 -4 -45 -42 -12 -2 -30 -27 -1 -21 -18 -11 -8 -63 0
-57 -60 -7 -17 -26 -41 -63 -8 -18 -27 -42 -11 -21 -30 -45 -1 -2 -4 -12 -14 -23 0
-57 -42 -27 -18 -8 -63 -41 -26 -17 -7 -60 -23 -14 -4 -45 -12 -2 -30 -1 -21 -11 0
-63 -8 -18 -27 -42 -57 -11 -21 -30 -45 -60 -1 -2 -4 -7 -12 -14 -17 -23 -26 -41 0
-11 -21 -30 -45 -60 -63 -1 -2 -4 -7 -8 -12 -14 -17 -18 -23 -26 -27 -41 -42 -57 0
-63 -60 -45 -30 -21 -11 -57 -42 -27 -18 -8 -41 -26 -17 -7 -23 -14 -4 -12 -2 -1 0
-1 -2 -4 -7 -9 -10 -12 -14 -17 -19 -20 -23 -26 -28 -29 -41 -43 -44 -58 -59 -64 0
-10 -9 -7 -4 -2 -1 -64 -59 -44 -29 -20 -58 -43 -28 -19 -41 -26 -17 -23 -14 -12 0
-1 -20 -19 -17 -14 -12 -10 -9 -7 -4 -2 -64 -59 -44 -29 -58 -43 -28 -41 -26 -23 0
-12 -14 -17 -19 -20 -1 -23 -26 -28 -29 -2 -41 -43 -44 -4 -58 -59 -7 -64 -9 -10 0
-12 -2 -29 -28 -26 -23 -1 -20 -19 -17 -14 -10 -9 -7 -4 -64 -59 -44 -58 -43 -41 0
-23 -26 -28 -29 -2 -12 -41 -43 -44 -4 -14 -58 -59 -7 -17 -64 -9 -19 -10 -20 -1 0
-23 -14 -4 -44 -43 -41 -12 -2 -29 -28 -26 -1 -20 -19 -17 -10 -9 -7 -64 -59 -58 0
-41 -43 -44 -4 -14 -23 -58 -59 -7 -17 -26 -64 -9 -19 -28 -10 -20 -29 -1 -2 -12 0
-41 -26 -17 -7 -59 -58 -23 -14 -4 -44 -43 -12 -2 -29 -28 -1 -20 -19 -10 -9 -64 0
-58 -59 -7 -17 -26 -41 -64 -9 -19 -28 -43 -10 -20 -29 -44 -1 -2 -4 -12 -14 -23 0
-58 -43 -28 -19 -9 -64 -41 -26 -17 -7 -59 -23 -14 -4 -44 -12 -2 -29 -1 -20 -10 0
-64 -9 -19 -28 -43 -58 -10 -20 -29 -44 -59 -1 -2 -4 -7 -12 -14 -17 -23 -26 -41 0
-10 -20 -29 -44 -59 -64 -1 -2 -4 -7 -9 -12 -14 -17 -19 -23 -26 -28 -41 -43 -58 0
-64 -59 -44 -29 -20 -10 -58 -43 -28 -19 -9 -41 -26 -17 -7 -23 -14 -4 -12 -2 -1 0
-1 -2 -4 -7 -9 -11 -12 -14 -17 -19 -21 -23 -26 -28 -30 -41 -43 -45 -58 -60 -65 0
-11 -9 -7 -4 -2 -1 -65 -60 -45 -30 -21 -58 -43 -28 -19 -41 -26 -17 -23 -14 -12 0
-1 -21 -19 -17 -14 -12 -11 -9 -7 -4 -2 -65 -60 -45 -30 -58 -43 -28 -41 -26 -23 0
-12 -14 -17 -19 -21 -1 -23 -26 -28 -30 -2 -41 -43 -45 -4 -58 -60 -7 -65 -9 -11 0
-12 -2 -30 -28 -26 -23 -1 -21 -19 -17 -14 -11 -9 -7 -4 -65 -60 -45 -58 -43 -41 0
-23 -26 -28 -30 -2 -12 -41 -43 -45 -4 -14 -58 -60 -7 -17 -65 -9 -19 -11 -21 -1 0
-23 -14 -4 -45 -43 -41 -12 -2 -30 -28 -26 -1 -21 -19 -17 -11 -9 -7 -65 -60 -58 0
-41 -43 -45 -4 -14 -23 -58 -60 -7 -17 -26 -65 -9 -19 -28 -11 -21 -30 -1 -2 -12 0
-41 -26 -17 -7 -60 -58 -23 -14 -4 -45 -43 -12 -2 -30 -28 -1 -21 -19 -11 -9 -65 0
-58 -60 -7 -17 -26 -41 -65 -9 -19 -28 -43 -11 -21 -30 -45 -1 -2 -4 -12 -14 -23 0
-58 -43 -28 -19 -9 -65 -41 -26 -17 -7 -60 -23 -14 -4 -45 -12 -2 -30 -1 -21 -11 0
-65 -9 -19 -28 -43 -58 -11 -21 -30 -45 -60 -1 -2 -4 -7 -12 -14 -17 -23 -26 -41 0
-11 -21 -30 -45 -60 -65 -1 -2 -4 -7 -9 -12 -14 -17 -19 -23 -26 -28 -41 -43 -58 0
-65 -60 -45 -30 -21 -11 -58 -43 -28 -19 -9 -41 -26 -17 -7 -23 -14 -4 -12 -2 -1 0
-1 -2 -4 -7 -10 -11 -12 -14 -17 -20 -21 -23 -26 -29 -30 -41 -44 -45 -59 -60 -66 0
-11 -10 -7 -4 -2 -1 -66 -60 -45 -30 -21 -59 -44 -29 -20 -41 -26 -17 -23 -14 -12 0
-1 -21 -20 -17 -14 -12 -11 -10 -7 -4 -2 -66 -60 -45 -30 -59 -44 -29 -41 -26 -23 0
-12 -14 -17 -20 -21 -1 -23 -26 -29 -30 -2 -41 -44 -45 -4 -59 -60 -7 -66 -10 -11 0
-12 -2 -30 -29 -26 -23 -1 -21 -20 -17 -14 -11 -10 -7 -4 -66 -60 -45 -59 -44 -41 0
-23 -26 -29 -30 -2 -12 -41 -44 -45 -4 -14 -59 -60 -7 -17 -66 -10 -20 -11 -21 -1 0
-23 -14 -4 -45 -44 -41 -12 -2 -30 -29 -26 -1 -21 -20 -17 -11 -10 -7 -66 -60 -59 0
-41 -44 -45 -4 -14 -23 -59 -60 -7 -17 -26 -66 -10 -20 -29 -11 -21 -30 -1 -2 -12 0
-41 -26 -17 -7 -60 -59 -23 -14 -4 -45 -44 -12 -2 -30 -29 -1 -21 -20 -11 -10 -66 0
-59 -60 -7 -17 -26 -41 -66 -10 -20 -29 -44 -11 -21 -30 -45 -1 -2 -4 -12 -14 -23 0
-59 -44 -29 -20 -10 -66 -41 -26 -17 -7 -60 -23 -14 -4 -45 -12 -2 -30 -1 -21 -11 0
-66 -10 -20 -29 -44 -59 -11 -21 -30 -45 -60 -1 -2 -4 -7 -12 -14 -17 -23 -26 -41 0
-11 -21 -30 -45 -60 -66 -1 -2 -4 -7 -10 -12 -14 -17 -20 -23 -26 -29 -41 -44 -59 0
-66 -60 -45 -30 -21 -11 -59 -44 -29 -20 -10 -41 -26 -17 -7 -23 -14 -4 -12 -2 -1 0
-1 -2 -4 -8 -9 -10 -12 -14 -18 -19 -20 -23 -27 -28 -29 -42 -43 -44 -61 -62 -64 0
-10 -9 -8 -4 -2 -1 -64 -62 -44 -29 -20 -61 -43 -28 -19 -42 -27 -18 -23 -14 -12 0
-1 -20 -19 -18 -14 -12 -10 -9 -8 -4 -2 -64 -62 -44 -29 -61 -43 -28 -42 -27 -23 0
-12 -14 -18 -19 -20 -1 -23 -27 -28 -29 -2 -42 -43 -44 -4 -61 -62 -8 -64 -9 -10 0
-12 -2 -29 -28 -27 -23 -1 -20 -19 -18 -14 -10 -9 -8 -4 -64 -62 -44 -61 -43 -42 0
-23 -27 -28 -29 -2 -12 -42 -43 -44 -4 -14 -61 -62 -8 -18 -64 -9 -19 -10 -20 -1 0
-23 -14 -4 -44 -43 -42 -12 -2 -29 -28 -27 -1 -20 -19 -18 -10 -9 -8 -64 -62 -61 0
-42 -43 -44 -4 -14 -23 -61 -62 -8 -18 -27 -64 -9 -19 -28 -10 -20 -29 -1 -2 -12 0
-42 -27 -18 -8 -62 -61 -23 -14 -4 -44 -43 -12 -2 -29 -28 -1 -20 -19 -10 -9 -64 0
-61 -62 -8 -18 -27 -42 -64 -9 -19 -28 -43 -10 -20 -29 -44 -1 -2 -4 -12 -14 -23 0
-61 -43 -28 -19 -9 -64 -42 -27 -18 -8 -62 -23 -14 -4 -44 -12 -2 -29 -1 -20 -10 0
-64 -9 -19 -28 -43 -61 -10 -20 -29 -44 -62 -1 -2 -4 -8 -12 -14 -18 -23 -27 -42 0
-10 -20 -29 -44 -62 -64 -1 -2 -4 -8 -9 -12 -14 -18 -19 -23 -27 -28 -42 -43 -61 0
-64 -62 -44 -29 -20 -10 -61 -43 -28 -19 -9 -42 -27 -18 -8 -23 -14 -4 -12 -2 -1 0
-1 -2 -4 -8 -9 -11 -12 -14 -18 -19 -21 -23 -27 -28 -30 -42 -43 -45 -61 -63 -65 0
-11 -9 -8 -4 -2 -1 -65 -63 -45 -30 -21 -61 -43 -28 -19 -42 -27 -18 -23 -14 -12 0
-1 -21 -19 -18 -14 -12 -11 -9 -8 -4 -2 -65 -63 -45 -30 -61 -43 -28 -42 -27 -23 0
-12 -14 -18 -19 -21 -1 -23 -27 -28 -30 -2 -42 -43 -45 -4 -61 -63 -8 -65 -9 -11 0
-12 -2 -30 -28 -27 -23 -1 -21 -19 -18 -14 -11 -9 -8 -4 -65 -63 -45 -61 -43 -42 0
-23 -27 -28 -30 -2 -12 -42 -43 -45 -4 -14 -61 -63 -8 -18 -65 -9 -19 -11 -21 -1 0
-23 -14 -4 -45 -43 -42 -12 -2 -30 -28 -27 -1 -21 -19 -18 -11 -9 -8 -65 -63 -61 0
-42 -43 -45 -4 -14 -23 -61 -63 -8 -18 -27 -65 -9 -19 -28 -11 -21 -30 -1 -2 -12 0
-42 -27 -18 -8 -63 -61 -23 -14 -4 -45 -43 -12 -2 -30 -28 -1 -21 -19 -11 -9 -65 0
-61 -63 -8 -18 -27 -42 -65 -9 -19 -28 -43 -11 -21 -30 -45 -1 -2 -4 -12 -14 -23 0
-61 -43 -28 -19 -9 -65 -42 -27 -18 -8 -63 -23 -14 -4 -45 -12 -2 -30 -1 -21 -11 0
-65 -9 -19 -28 -43 -61 -11 -21 -30 -45 -63 -1 -2 -4 -8 -12 -14 -18 -23 -27 -42 0
-11 -21 -30 -45 -63 -65 -1 -2 -4 -8 -9 -12 -14 -18 -19 -23 -27 -28 -42 -43 -61 0
-65 -63 -45 -30 -21 -11 -61 -43 -28 -19 -9 -42 -27 -18 -8 -23 -14 -4 -12 -2 -1 0
-1 -2 -4 -8 -10 -11 -12 -14 -18 -20 -21 -23 -27 -29 -30 -42 -44 -45 -62 -63 -66 0
-11 -10 -8 -4 -2 -1 -66 -63 -45 -30 -21 -62 -44 -29 -20 -42 -27 -18 -23 -14 -12 0
-1 -21 -20 -18 -14 -12 -11 -10 -8 -4 -2 -66 -63 -45 -30 -62 -44 -29 -42 -27 -23 0
-12 -14 -18 -20 -21 -1 -23 -27 -29 -30 -2 -42 -44 -45 -4 -62 -63 -8 -66 -10 -11 0
-12 -2 -30 -29 -27 -23 -1 -21 -20 -18 -14 -11 -10 -8 -4 -66 -63 -45 -62 -44 -42 0
-23 -27 -29 -30 -2 -12 -42 -44 -45 -4 -14 -62 -63 -8 -18 -66 -10 -20 -11 -21 -1 0
-23 -14 -4 -45 -44 -42 -12 -2 -30 -29 -27 -1 -21 -20 -18 -11 -10 -8 -66 -63 -62 0
-42 -44 -45 -4 -14 -23 -62 -63 -8 -18 -27 -66 -10 -20 -29 -11 -21 -30 -1 -2 -12 0
-42 -27 -18 -8 -63 -62 -23 -14 -4 -45 -44 -12 -2 -30 -29 -1 -21 -20 -11 -10 -66 0
-62 -63 -8 -18 -27 -42 -66 -10 -20 -29 -44 -11 -21 -30 -45 -1 -2 -4 -12 -14 -23 0
-62 -44 -29 -20 -10 -66 -42 -27 -18 -8 -63 -23 -14 -4 -45 -12 -2 -30 -1 -21 -11 0
-66 -10 -20 -29 -44 -62 -11 -21 -30 -45 -63 -1 -2 -4 -8 -12 -14 -18 -23 -27 -42 0
-11 -21 -30 -45 -63 -66 -1 -2 -4 -8 -10 -12 -14 -18 -20 -23 -27 -29 -42 -44 -62 0
-66 -63 -45 -30 -21 -11 -62 -44 -29 -20 -10 -42 -27 -18 -8 -23 -14 -4 -12 -2 -1 0
-1 -2 -4 -9 -10 -11 -12 -14 -19 -20 -21 -23 -28 -29 -30 -43 -44 -45 -64 -65 -66 0
-11 -10 -9 -4 -2 -1 -66 -65 -45 -30 -21 -64 -44 -29 -20 -43 -28 -19 -23 -14 -12 0
-1 -21 -20 -19 -14 -12 -11 -10 -9 -4 -2 -66 -65 -45 -30 -64 -44 -29 -43 -28 -23 0
-12 -14 -19 -20 -21 -1 -23 -28 -29 -30 -2 -43 -44 -45 -4 -64 -65 -9 -66 -10 -11 0
-12 -2 -30 -29 -28 -23 -1 -21 -20 -19 -14 -11 -10 -9 -4 -66 -65 -45 -64 -44 -43 0
-23 -28 -29 -30 -2 -12 -43 -44 -45 -4 -14 -64 -65 -9 -19 -66 -10 -20 -11 -21 -1 0
-23 -14 -4 -45 -44 -43 -12 -2 -30 -29 -28 -1 -21 -20 -19 -11 -10 -9 -66 -65 -64 0
-43 -44 -45 -4 -14 -23 -64 -65 -9 -19 -28 -66 -10 -20 -29 -11 -21 -30 -1 -2 -12 0
-43 -28 -19 -9 -65 -64 -23 -14 -4 -45 -44 -12 -2 -30 -29 -1 -21 -20 -11 -10 -66 0
-64 -65 -9 -19 -28 -43 -66 -10 -20 -29 -44 -11 -21 -30 -45 -1 -2 -4 -12 -14 -23 0
-64 -44 -29 -20 -10 -66 -43 -28 -19 -9 -65 -23 -14 -4 -45 -12 -2 -30 -1 -21 -11 0
-66 -10 -20 -29 -44 -64 -11 -21 -30 -45 -65 -1 -2 -4 -9 -12 -14 -19 -23 -28 -43 0
-11 -21 -30 -45 -65 -66 -1 -2 -4 -9 -10 -12 -14 -19 -20 -23 -28 -29 -43 -44 -64 0
-66 -65 -45 -30 -21 -11 -64 -44 -29 -20 -10 -43 -28 -19 -9 -23 -14 -4 -12 -2 -1 0
-1 -2 -5 -6 -7 -8 -12 -15 -16 -17 -18 -24 -25 -26 -27 -46 -47 -48 -52 -53 -57 0
-8 -7 -6 -5 -2 -1 -57 -53 -48 -27 -18 -52 -47 -26 -17 -46 -25 -16 -24 -15 -12 0
-1 -18 -17 -16 -15 -12 -8 -7 -6 -5 -2 -57 -53 -48 -27 -52 -47 -26 -46 -25 -24 0
-12 -15 -16 -17 -18 -1 -24 -25 -26 -27 -2 -46 -47 -48 -5 -52 -53 -6 -57 -7 -8 0
-12 -2 -27 -26 -25 -24 -1 -18 -17 -16 -15 -8 -7 -6 -5 -57 -53 -48 -52 -47 -46 0
-24 -25 -26 -27 -2 -12 -46 -47 -48 -5 -15 -52 -53 -6 -16 -57 -7 -17 -8 -18 -1 0
-24 -15 -5 -48 -47 -46 -12 -2 -27 -26 -25 -1 -18 -17 -16 -8 -7 -6 -57 -53 -52 0
-46 -47 -48 -5 -15 -24 -52 -53 -6 -16 -25 -57 -7 -17 -26 -8 -18 -27 -1 -2 -12 0
-46 -25 -16 -6 -53 -52 -24 -15 -5 -48 -47 -12 -2 -27 -26 -1 -18 -17 -8 -7 -57 0
-52 -53 -6 -16 -25 -46 -57 -7 -17 -26 -47 -8 -18 -27 -48 -1 -2 -5 -12 -15 -24 0
-52 -47 -26 -17 -7 -57 -46 -25 -16 -6 -53 -24 -15 -5 -48 -12 -2 -27 -1 -18 -8 0
-57 -7 -17 -26 -47 -52 -8 -18 -27 -48 -53 -1 -2 -5 -6 -12 -15 -16 -24 -25 -46 0
-8 -18 -27 -48 -53 -57 -1 -2 -5 -6 -7 -12 -15 -16 -17 -24 -25 -26 -46 -47 -52 0
-57 -53 -48 -27 -18 -8 -52 -47 -26 -17 -7 -46 -25 -16 -6 -24 -15 -5 -12 -2 -1 0
-1 -2 -5 -6 -7 -9 -12 -15 -16 -17 -19 -24 -25 -26 -28 -46 -47 -49 -52 -54 -58 0
-9 -7 -6 -5 -2 -1 -58 -54 -49 -28 -19 -52 -47 -26 -17 -46 -25 -16 -24 -15 -12 0
-1 -19 -17 -16 -15 -12 -9 -7 -6 -5 -2 -58 -54 -49 -28 -52 -47 -26 -46 -25 -24 0
-12 -15 -16 -17 -19 -1 -24 -25 -26 -28 -2 -46 -47 -49 -5 -52 -54 -6 -58 -7 -9 0
-12 -2 -28 -26 -25 -24 -1 -19 -17 -16 -15 -9 -7 -6 -5 -58 -54 -49 -52 -47 -46 0
-24 -25 -26 -28 -2 -12 -46 -47 -49 -5 -15 -52 -54 -6 -16 -58 -7 -17 -9 -19 -1 0
-24 -15 -5 -49 -47 -46 -12 -2 -28 -26 -25 -1 -19 -17 -16 -9 -7 -6 -58 -54 -52 0
-46 -47 -49 -5 -15 -24 -52 -54 -6 -16 -25 -58 -7 -17 -26 -9 -19 -28 -1 -2 -12 0
-46 -25 -16 -6 -54 -52 -24 -15 -5 -49 -47 -12 -2 -28 -26 -1 -19 -17 -9 -7 -58 0
-52 -54 -6 -16 -25 -46 -58 -7 -17 -26 -47 -9 -19 -28 -49 -1 -2 -5 -12 -15 -24 0
-52 -47 -26 -17 -7 -58 -46 -25 -16 -6 -54 -24 -15 -5 -49 -12 -2 -28 -1 -19 -9 0
-58 -7 -17 -26 -47 -52 -9 -19 -28 -49 -54 -1 -2 -5 -6 -12 -15 -16 -24 -25 -46 0
-9 -19 -28 -49 -54 -58 -1 -2 -5 -6 -7 -12 -15 -16 -17 -24 -25 -26 -46 -47 -52 0
-58 -54 -49 -28 -19 -9 -52 -47 -26 -17 -7 -46 -25 -16 -6 -24 -15 -5 -12 -2 -1 0
-1 -2 -5 -6 -7 -10 -12 -15 -16 -17 -20 -24 -25 -26 -29 -46 -47 -50 -52 -55 -59 0
-10 -7 -6 -5 -2 -1 -59 -55 -50 -29 -20 -52 -47 -26 -17 -46 -25 -16 -24 -15 -12 0
-1 -20 -17 -16 -15 -12 -10 -7 -6 -5 -2 -59 -55 -50 -29 -52 -47 -26 -46 -25 -24 0
-12 -15 -16 -17 -20 -1 -24 -25 -26 -29 -2 -46 -47 -50 -5 -52 -55 -6 -59 -7 -10 0
-12 -2 -29 -26 -25 -24 -1 -20 -17 -16 -15 -10 -7 -6 -5 -59 -55 -50 -52 -47 -46 0
-24 -25 -26 -29 -2 -12 -46 -47 -50 -5 -15 -52 -55 -6 -16 -59 -7 -17 -10 -20 -1 0
-24 -15 -5 -50 -47 -46 -12 -2 -29 -26 -25 -1 -20 -17 -16 -10 -7 -6 -59 -55 -52 0
-46 -47 -50 -5 -15 -24 -52 -55 -6 -16 -25 -59 -7 -17 -26 -10 -20 -29 -1 -2 -12 0
-46 -25 -16 -6 -55 -52 -24 -15 -5 -50 -47 -12 -2 -29 -26 -1 -20 -17 -10 -7 -59 0
-52 -55 -6 -16 -25 -46 -59 -7 -17 -26 -47 -10 -20 -29 -50 -1 -2 -5 -12 -15 -24 0
-52 -47 -26 -17 -7 -59 -46 -25 -16 -6 -55 -24 -15 -5 -50 -12 -2 -29 -1 -20 -10 0
-59 -7 -17 -26 -47 -52 -10 -20 -29 -50 -55 -1 -2 -5 -6 -12 -15 -16 -24 -25 -46 0
-10 -20 -29 -50 -55 -59 -1 -2 -5 -6 -7 -12 -15 -16 -17 -24 -25 -26 -46 -47 -52 0
-59 -55 -50 -29 -20 -10 -52 -47 -26 -17 -7 -46 -25 -16 -6 -24 -15 -5 -12 -2 -1 0
-1 -2 -5 -6 -7 -11 -12 -15 -16 -17 -21 -24 -25 -26 -30 -46 -47 -51 -52 -56 -60 0
-11 -7 -6 -5 -2 -1 -60 -56 -51 -30 -21 -52 -47 -26 -17 -46 -25 -16 -24 -15 -12 0
-1 -21 -17 -16 -15 -12 -11 -7 -6 -5 -2 -60 -56 -51 -30 -52 -47 -26 -46 -25 -24 0
-12 -15 -16 -17 -21 -1 -24 -25 -26 -30 -2 -46 -47 -51 -5 -52 -56 -6 -60 -7 -11 0
-12 -2 -30 -26 -25 -24 -1 -21 -17 -16 -15 -11 -7 -6 -5 -60 -56 -51 -52 -47 -46 0
-24 -25 -26 -30 -2 -12 -46 -47 -51 -5 -15 -52 -56 -6 -16 -60 -7 -17 -11 -21 -1 0
-24 -15 -5 -51 -47 -46 -12 -2 -30 -26 -25 -1 -21 -17 -16 -11 -7 -6 -60 -56 -52 0
-46 -47 -51 -5 -15 -24 -52 -56 -6 -16 -25 -60 -7 -17 -26 -11 -21 -30 -1 -2 -12 0
-46 -25 -16 -6 -56 -52 -24 -15 -5 -51 -47 -12 -2 -30 -26 -1 -21 -17 -11 -7 -60 0
-52 -56 -6 -16 -25 -46 -60 -7 -17 -26 -47 -11 -21 -30 -51 -1 -2 -5 -12 -15 -24 0
-52 -47 -26 -17 -7 -60 -46 -25 -16 -6 -56 -24 -15 -5 -51 -12 -2 -30 -1 -21 -11 0
-60 -7 -17 -26 -47 -52 -11 -21 -30 -51 -56 -1 -2 -5 -6 -12 -15 -16 -24 -25 -46 0
-11 -21 -30 -51 -56 -60 -1 -2 -5 -6 -7 -12 -15 -16 -17 -24 -25 -26 -46 -47 -52 0
-60 -56 -51 -30 -21 -11 -52 -47 -26 -17 -7 -46 -25 -16 -6 -24 -15 -5 -12 -2 -1 0
-1 -2 -5 -6 -8 -9 -12 -15 -16 -18 -19 -24 -25 -27 -28 -46 -48 -49 -53 -54 -61 0
-9 -8 -6 -5 -2 -1 -61 -54 -49 -28 -19 -53 -48 -27 -18 -46 -25 -16 -24 -15 -12 0
-1 -19 -18 -16 -15 -12 -9 -8 -6 -5 -2 -61 -54 -49 -28 -53 -48 -27 -46 -25 -24 0
-12 -15 -16 -18 -19 -1 -24 -25 -27 -28 -2 -46 -48 -49 -5 -53 -54 -6 -61 -8 -9 0
-12 -2 -28 -27 -25 -24 -1 -19 -18 -16 -15 -9 -8 -6 -5 -61 -54 -49 -53 -48 -46 0
-24 -25 -27 -28 -2 -12 -46 -48 -49 -5 -15 -53 -54 -6 -16 -61 -8 -18 -9 -19 -1 0
-24 -15 -5 -49 -48 -46 -12 -2 -28 -27 -25 -1 -19 -18 -16 -9 -8 -6 -61 -54 -53 0
-46 -48 -49 -5 -15 -24 -53 -54 -6 -16 -25 -61 -8 -18 -27 -9 -19 -28 -1 -2 -12 0
-46 -25 -16 -6 -54 -53 -24 -15 -5 -49 -48 -12 -2 -28 -27 -1 -19 -18 -9 -8 -61 0
-53 -54 -6 -16 -25 -46 -61 -8 -18 -27 -48 -9 -19 -28 -49 -1 -2 -5 -12 -15 -24 0
-53 -48 -27 -18 -8 -61 -46 -25 -16 -6 -54 -24 -15 -5 -49 -12 -2 -28 -1 -19 -9 0
-61 -8 -18 -27 -48 -53 -9 -19 -28 -49 -54 -1 -2 -5 -6 -12 -15 -16 -24 -25 -46 0
-9 -19 -28 -49 -54 -61 -1 -2 -5 -6 -8 -12 -15 -16 -18 -24 -25 -27 -46 -48 -53 0
-61 -54 -49 -28 -19 -9 -53 -48 -27 -18 -8 -46 -25 -16 -6 -24 -15 -5 -12 -2 -1 0
-1 -2 -5 -6 -8 -10 -12 -15 -16 -18 -20 -24 -25 -27 -29 -46 -48 -50 -53 -55 -62 0
-10 -8 -6 -5 -2 -1 -62 -55 -50 -29 -20 -53 -48 -27 -18 -46 -25 -16 -24 -15 -12 0
-1 -20 -18 -16 -15 -12 -10 -8 -6 -5 -2 -62 -55 -50 -29 -53 -48 -27 -46 -25 -24 0
-12 -15 -16 -18 -20 -1 -24 -25 -27 -29 -2 -46 -48 -50 -5 -53 -55 -6 -62 -8 -10 0
-12 -2 -29 -27 -25 -24 -1 -20 -18 -16 -15 -10 -8 -6 -5 -62 -55 -50 -53 -48 -46 0
-24 -25 -27 -29 -2 -12 -46 -48 -50 -5 -15 -53 -55 -6 -16 -62 -8 -18 -10 -20 -1 0
-24 -15 -5 -50 -48 -46 -12 -2 -29 -27 -25 -1 -20 -18 -16 -10 -8 -6 -62 -55 -53 0
-46 -48 -50 -5 -15 -24 -53 -55 -6 -16 -25 -62 -8 -18 -27 -10 -20 -29 -1 -2 -12 0
-46 -25 -16 -6 -55 -53 -24 -15 -5 -50 -48 -12 -2 -29 -27 -1 -20 -18 -10 -8 -62 0
-53 -55 -6 -16 -25 -46 -62 -8 -18 -27 -48 -10 -20 -29 -50 -1 -2 -5 -12 -15 -24 0
-53 -48 -27 -18 -8 -62 -46 -25 -16 -6 -55 -24 -15 -5 -50 -12 -2 -29 -1 -20 -10 0
-62 -8 -18 -27 -48 -53 -10 -20 -29 -50 -55 -1 -2 -5 -6 -12 -15 -16 -24 -25 -46 0
-10 -20 -29 -50 -55 -62 -1 -2 -5 -6 -8 -12 -15 -16 -18 -24 -25 -27 -46 -48 -53 0
-62 -55 -50 -29 -20 -10 -53 -48 -27 -18 -8 -46 -25 -16 -6 -24 -15 -5 -12 -2 -1 0
-1 -2 -5 -6 -8 -11 -12 -15 -16 -18 -21 -24 -25 -27 -30 -46 -48 -51 -53 -56 -63 0
-11 -8 -6 -5 -2 -1 -63 -56 -51 -30 -21 -53 -48 -27 -18 -46 -25 -16 -24 -15 -12 0
-1 -21 -18 -16 -15 -12 -11 -8 -6 -5 -2 -63 -56 -51 -30 -53 -48 -27 -46 -25 -24 0
-12 -15 -16 -18 -21 -1 -24 -25 -27 -30 -2 -46 -48 -51 -5 -53 -56 -6 -63 -8 -11 0
-12 -2 -30 -27 -25 -24 -1 -21 -18 -16 -15 -11 -8 -6 -5 -63 -56 -51 -53 -48 -46 0
-24 -25 -27 -30 -2 -12 -46 -48 -51 -5 -15 -53 -56 -6 -16 -63 -8 -18 -11 -21 -1 0
-24 -15 -5 -51 -48 -46 -12 -2 -30 -27 -25 -1 -21 -18 -16 -11 -8 -6 -63 -56 -53 0
-46 -48 -51 -5 -15 -24 -53 -56 -6 -16 -25 -63 -8 -18 -27 -11 -21 -30 -1 -2 -12 0
-46 -25 -16 -6 -56 -53 -24 -15 -5 -51 -48 -12 -2 -30 -27 -1 -21 -18 -11 -8 -63 0
-53 -56 -6 -16 -25 -46 -63 -8 -18 -27 -48 -11 -21 -30 -51 -1 -2 -5 -12 -15 -24 0
-53 -48 -27 -18 -8 -63 -46 -25 -16 -6 -56 -24 -15 -5 -51 -12 -2 -30 -1 -21 -11 0
-63 -8 -18 -27 -48 -53 -11 -21 -30 -51 -56 -1 -2 -5 -6 -12 -15 -16 -24 -25 -46 0
-11 -21 -30 -51 -56 -63 -1 -2 -5 -6 -8 -12 -15 -16 -18 -24 -25 -27 -46 -48 -53 0
-63 -56 -51 -30 -21 -11 -53 -48 -27 -18 -8 -46 -25 -16 -6 -24 -15 -5 -12 -2 -1 0
-1 -2 -5 -6 -9 -10 -12 -15 -16 -19 -20 -24 -25 -28 -29 -46 -49 -50 -54 -55 -64 0
-10 -9 -6 -5 -2 -1 -64 -55 -50 -29 -20 -54 -49 -28 -19 -46 -25 -16 -24 -15 -12 0
-1 -20 -19 -16 -15 -12 -10 -9 -6 -5 -2 -64 -55 -50 -29 -54 -49 -28 -46 -25 -24 0
-12 -15 -16 -19 -20 -1 -24 -25 -28 -29 -2 -46 -49 -50 -5 -54 -55 -6 -64 -9 -10 0
-12 -2 -29 -28 -25 -24 -1 -20 -19 -16 -15 -10 -9 -6 -5 -64 -55 -50 -54 -49 -46 0
-24 -25 -28 -29 -2 -12 -46 -49 -50 -5 -15 -54 -55 -6 -16 -64 -9 -19 -10 -20 -1 0
-24 -15 -5 -50 -49 -46 -12 -2 -29 -28 -25 -1 -20 -19 -16 -10 -9 -6 -64 -55 -54 0
-46 -49 -50 -5 -15 -24 -54 -55 -6 -16 -25 -64 -9 -19 -28 -10 -20 -29 -1 -2 -12 0
-46 -25 -16 -6 -55 -54 -24 -15 -5 -50 -49 -12 -2 -29 -28 -1 -20 -19 -10 -9 -64 0
-54 -55 -6 -16 -25 -46 -64 -9 -19 -28 -49 -10 -20 -29 -50 -1 -2 -5 -12 -15 -24 0
-54 -49 -28 -19 -9 -64 -46 -25 -16 -6 -55 -24 -15 -5 -50 -12 -2 -29 -1 -20 -10 0
-64 -9 -19 -28 -49 -54 -10 -20 -29 -50 -55 -1 -2 -5 -6 -12 -15 -16 -24 -25 -46 0
-10 -20 -29 -50 -55 -64 -1 -2 -5 -6 -9 -12 -15 -16 -19 -24 -25 -28 -46 -49 -54 0
-64 -55 -50 -29 -20 -10 -54 -49 -28 -19 -9 -46 -25 -16 -6 -24 -15 -5 -12 -2 -1 0
-1 -2 -5 -6 -9 -11 -12 -15 -16 -19 -21 -24 -25 -28 -30 -46 -49 -51 -54 -56 -65 0
-11 -9 -6 -5 -2 -1 -65 -56 -51 -30 -21 -54 -49 -28 -19 -46 -25 -16 -24 -15 -12 0
-1 -21 -19 -16 -15 -12 -11 -9 -6 -5 -2 -65 -56 -51 -30 -54 -49 -28 -46 -25 -24 0
-12 -15 -16 -19 -21 -1 -24 -25 -28 -30 -2 -46 -49 -51 -5 -54 -56 -6 -65 -9 -11 0
-12 -2 -30 -28 -25 -24 -1 -21 -19 -16 -15 -11 -9 -6 -5 -65 -56 -51 -54 -49 -46 0
-24 -25 -28 -30 -2 -12 -46 -49 -51 -5 -15 -54 -56 -6 -16 -65 -9 -19 -11 -21 -1 0
-24 -15 -5 -51 -49 -46 -12 -2 -30 -28 -25 -1 -21 -19 -16 -11 -9 -6 -65 -56 -54 0
-46 -49 -51 -5 -15 -24 -54 -56 -6 -16 -25 -65 -9 -19 -28 -11 -21 -30 -1 -2 -12 0
-46 -25 -16 -6 -56 -54 -24 -15 -5 -51 -49 -12 -2 -30 -28 -1 -21 -19 -11 -9 -65 0
-54 -56 -6 -16 -25 -46 -65 -9 -19 -28 -49 -11 -21 -30 -51 -1 -2 -5 -12 -15 -24 0
-54 -49 -28 -19 -9 -65 -46 -25 -16 -6 -56 -24 -15 -5 -51 -12 -2 -30 -1 -21 -11 0
-65 -9 -19 -28 -49 -54 -11 -21 -30 -51 -56 -1 -2 -5 -6 -12 -15 -16 -24 -25 -46 0
-11 -21 -30 -51 -56 -65 -1 -2 -5 -6 -9 -12 -15 -16 -19 -24 -25 -28 -46 -49 -54 0
-65 -56 -51 -30 -21 -11 -54 -49 -28 -19 -9 -46 -25 -16 -6 -24 -15 -5 -12 -2 -1 0
-1 -2 -5 -6 -10 -11 -12 -15 -16 -20 -21 -24 -25 -29 -30 -46 -50 -51 -55 -56 -66 0
-11 -10 -6 -5 -2 -1 -66 -56 -51 -30 -21 -55 -50 -29 -20 -46 -25 -16 -24 -15 -12 0
-1 -21 -20 -16 -15 -12 -11 -10 -6 -5 -2 -66 -56 -51 -30 -55 -50 -29 -46 -25 -24 0
-12 -15 -16 -20 -21 -1 -24 -25 -29 -30 -2 -46 -50 -51 -5 -55 -56 -6 -66 -10 -11 0
-12 -2 -30 -29 -25 -24 -1 -21 -20 -16 -15 -11 -10 -6 -5 -66 -56 -51 -55 -50 -46 0
-24 -25 -29 -30 -2 -12 -46 -50 -51 -5 -15 -55 -56 -6 -16 -66 -10 -20 -11 -21 -1 0
-24 -15 -5 -51 -50 -46 -12 -2 -30 -29 -25 -1 -21 -20 -16 -11 -10 -6 -66 -56 -55 0
-46 -50 -51 -5 -15 -24 -55 -56 -6 -16 -25 -66 -10 -20 -29 -11 -21 -30 -1 -2 -12 0
-46 -25 -16 -6 -56 -55 -24 -15 -5 -51 -50 -12 -2 -30 -29 -1 -21 -20 -11 -10 -66 0
-55 -56 -6 -16 -25 -46 -66 -10 -20 -29 -50 -11 -21 -30 -51 -1 -2 -5 -12 -15 -24 0
-55 -50 -29 -20 -10 -66 -46 -25 -16 -6 -56 -24 -15 -5 -51 -12 -2 -30 -1 -21 -11 0
-66 -10 -20 -29 -50 -55 -11 -21 -30 -51 -56 -1 -2 -5 -6 -12 -15 -16 -24 -25 -46 0
-11 -21 -30 -51 -56 -66 -1 -2 -5 -6 -10 -12 -15 -16 -20 -24 -25 -29 -46 -50 -55 0
-66 -56 -51 -30 -21 -11 -55 -50 -29 -20 -10 -46 -25 -16 -6 -24 -15 -5 -12 -2 -1 0
-1 -2 -5 -7 -8 -9 -12 -15 -17 -18 -19 -24 -26 -27 -28 -47 -48 -49 -57 -58 -61 0
-9 -8 -7 -5 -2 -1 -61 -58 -49 -28 -19 -57 -48 -27 -18 -47 -26 -17 -24 -15 -12 0
-1 -19 -18 -17 -15 -12 -9 -8 -7 -5 -2 -61 -58 -49 -28 -57 -48 -27 -47 -26 -24 0
-12 -15 -17 -18 -19 -1 -24 -26 -27 -28 -2 -47 -48 -49 -5 -57 -58 -7 -61 -8 -9 0
-12 -2 -28 -27 -26 -24 -1 -19 -18 -17 -15 -9 -8 -7 -5 -61 -58 -49 -57 -48 -47 0
-24 -26 -27 -28 -2 -12 -47 -48 -49 -5 -15 -57 -58 -7 -17 -61 -8 -18 -9 -19 -1 0
-24 -15 -5 -49 -48 -47 -12 -2 -28 -27 -26 -1 -19 -18 -17 -9 -8 -7 -61 -58 -57 0
-47 -48 -49 -5 -15 -24 -57 -58 -7 -17 -26 -61 -8 -18 -27 -9 -19 -28 -1 -2 -12 0
-47 -26 -17 -7 -58 -57 -24 -15 -5 -49 -48 -12 -2 -28 -27 -1 -19 -18 -9 -8 -61 0
-57 -58 -7 -17 -26 -47 -61 -8 -18 -27 -48 -9 -19 -28 -49 -1 -2 -5 -12 -15 -24 0
-57 -48 -27 -18 -8 -61 -47 -26 -17 -7 -58 -24 -15 -5 -49 -12 -2 -28 -1 -19 -9 0
-61 -8 -18 -27 -48 -57 -9 -19 -28 -49 -58 -1 -2 -5 -7 -12 -15 -17 -24 -26 -47 0
-9 -19 -28 -49 -58 -61 -1 -2 -5 -7 -8 -12 -15 -17 -18 -24 -26 -27 -47 -48 -57 0
-61 -58 -49 -28 -19 -9 -57 -48 -27 -18 -8 -47 -26 -17 -7 -24 -15 -5 -12 -2 -1 0
-1 -2 -5 -7 -8 -10 -12 -15 -17 -18 -20 -24 -26 -27 -29 -47 -48 -50 -57 -59 -62 0
-10 -8 -7 -5 -2 -1 -62 -59 -50 -29 -20 -57 -48 -27 -18 -47 -26 -17 -24 -15 -12 0
-1 -20 -18 -17 -15 -12 -10 -8 -7 -5 -2 -62 -59 -50 -29 -57 -48 -27 -47 -26 -24 0
-12 -15 -17 -18 -20 -1 -24 -26 -27 -29 -2 -47 -48 -50 -5 -57 -59 -7 -62 -8 -10 0
-12 -2 -29 -27 -26 -24 -1 -20 -18 -17 -15 -10 -8 -7 -5 -62 -59 -50 -57 -48 -47 0
-24 -26 -27 -29 -2 -12 -47 -48 -50 -5 -15 -57 -59 -7 -17 -62 -8 -18 -10 -20 -1 0
-24 -15 -5 -50 -48 -47 -12 -2 -29 -27 -26 -1 -20 -18 -17 -10 -8 -7 -62 -59 -57 0
-47 -48 -50 -5 -15 -24 -57 -59 -7 -17 -26 -62 -8 -18 -27 -10 -20 -29 -1 -2 -12 0
-47 -26 -17 -7 -59 -57 -24 -15 -5 -50 -48 -12 -2 -29 -27 -1 -20 -18 -10 -8 -62 0
-57 -59 -7 -17 -26 -47 -62 -8 -18 -27 -48 -10 -20 -29 -50 -1 -2 -5 -12 -15 -24 0
-57 -48 -27 -18 -8 -62 -47 -26 -17 -7 -59 -24 -15 -5 -50 -12 -2 -29 -1 -20 -10 0
-62 -8 -18 -27 -48 -57 -10 -20 -29 -50 -59 -1 -2 -5 -7 -12 -15 -17 -24 -26 -47 0
-10 -20 -29 -50 -59 -62 -1 -2 -5 -7 -8 -12 -15 -17 -18 -24 -26 -27 -47 -48 -57 0
-62 -59 -50 -29 -20 -10 -57 -48 -27 -18 -8 -47 -26 -17 -7 -24 -15 -5 -12 -2 -1 0
-1 -2 -5 -7 -8 -11 -12 -15 -17 -18 -21 -24 -26 -27 -30 -47 -48 -51 -57 -60 -63 0
-11 -8 -7 -5 -2 -1 -63 -60 -51 -30 -21 -57 -48 -27 -18 -47 -26 -17 -24 -15 -12 0
-1 -21 -18 -17 -15 -12 -11 -8 -7 -5 -2 -63 -60 -51 -30 -57 -48 -27 -47 -26 -24 0
-12 -15 -17 -18 -21 -1 -24 -26 -27 -30 -2 -47 -48 -51 -5 -57 -60 -7 -63 -8 -11 0
-12 -2 -30 -27 -26 -24 -1 -21 -18 -17 -15 -11 -8 -7 -5 -63 -60 -51 -57 -48 -47 0
-24 -26 -27 -30 -2 -12 -47 -48 -51 -5 -15 -57 -60 -7 -17 -63 -8 -18 -11 -21 -1 0
-24 -15 -5 -51 -48 -47 -12 -2 -30 -27 -26 -1 -21 -18 -17 -11 -8 -7 -63 -60 -57 0
-47 -48 -51 -5 -15 -24 -57 -60 -7 -17 -26 -63 -8 -18 -27 -11 -21 -30 -1 -2 -12 0
-47 -26 -17 -7 -60 -57 -24 -15 -5 -51 -48 -12 -2 -30 -27 -1 -21 -18 -11 -8 -63 0
-57 -60 -7 -17 -26 -47 -63 -8 -18 -27 -48 -11 -21 -30 -51 -1 -2 -5 -12 -15 -24 0
-57 -48 -27 -18 -8 -63 -47 -26 -17 -7 -60 -24 -15 -5 -51 -12 -2 -30 -1 -21 -11 0
-63 -8 -18 -27 -48 -57 -11 -21 -30 -51 -60 -1 -2 -5 -7 -12 -15 -17 -24 -26 -47 0
-11 -21 -30 -51 -60 -63 -1 -2 -5 -7 -8 -12 -15 -17 -18 -24 -26 -27 -47 -48 -57 0
-63 -60 -51 -30 -21 -11 -57 -48 -27 -18 -8 -47 -26 -17 -7 -24 -15 -5 -12 -2 -1 0
-1 -2 -5 -7 -9 -10 -12 -15 -17 -19 -20 -24 -26 -28 -29 -47 -49 -50 -58 -59 -64 0
-10 -9 -7 -5 -2 -1 -64 -59 -50 -29 -20 -58 -49 -28 -19 -47 -26 -17 -24 -15 -12 0
-1 -20 -19 -17 -15 -12 -10 -9 -7 -5 -2 -64 -59 -50 -29 -58 -49 -28 -47 -26 -24 0
-12 -15 -17 -19 -20 -1 -24 -26 -28 -29 -2 -47 -49 -50 -5 -58 -59 -7 -64 -9 -10 0
-12 -2 -29 -28 -26 -24 -1 -20 -19 -17 -15 -10 -9 -7 -5 -64 -59 -50 -58 -49 -47 0
-24 -26 -28 -29 -2 -12 -47 -49 -50 -5 -15 -58 -59 -7 -17 -64 -9 -19 -10 -20 -1 0
-24 -15 -5 -50 -49 -47 -12 -2 -29 -28 -26 -1 -20 -19 -17 -10 -9 -7 -64 -59 -58 0
-47 -49 -50 -5 -15 -24 -58 -59 -7 -17 -26 -64 -9 -19 -28 -10 -20 -29 -1 -2 -12 0
-47 -26 -17 -7 -59 -58 -24 -15 -5 -50 -49 -12 -2 -29 -28 -1 -20 -19 -10 -9 -64 0
-58 -59 -7 -17 -26 -47 -64 -9 -19 -28 -49 -10 -20 -29 -50 -1 -2 -5 -12 -15 -24 0
-58 -49 -28 -19 -9 -64 -47 -26 -17 -7 -59 -24 -15 -5 -50 -12 -2 -29 -1 -20 -10 0
-64 -9 -19 -28 -49 -58 -10 -20 -29 -50 -59 -1 -2 -5 -7 -12 -15 -17 -24 -26 -47 0
-10 -20 -29 -50 -59 -64 -1 -2 -5 -7 -9 -12 -15 -17 -19 -24 -26 -28 -47 -49 -58 0
-64 -59 -50 -29 -20 -10 -58 -49 -28 -19 -9 -47 -26 -17 -7 -24 -15 -5 -12 -2 -1 0
-1 -2 -5 -7 -9 -11 -12 -15 -17 -19 -21 -24 -26 -28 -30 -47 -49 -51 -58 -60 -65 0
-11 -9 -7 -5 -2 -1 -65 -60 -51 -30 -21 -58 -49 -28 -19 -47 -26 -17 -24 -15 -12 0
-1 -21 -19 -17 -15 -12 -11 -9 -7 -5 -2 -65 -60 -51 -30 -58 -49 -28 -47 -26 -24 0
-12 -15 -17 -19 -21 -1 -24 -26 -28 -30 -2 -47 -49 -51 -5 -58 -60 -7 -65 -9 -11 0
-12 -2 -30 -28 -26 -24 -1 -21 -19 -17 -15 -11 -9 -7 -5 -65 -60 -51 -58 -49 -47 0
-24 -26 -28 -30 -2 -12 -47 -49 -51 -5 -15 -58 -60 -7 -17 -65 -9 -19 -11 -21 -1 0
-24 -15 -5 -51 -49 -47 -12 -2 -30 -28 -26 -1 -21 -19 -17 -11 -9 -7 -65 -60 -58 0
-47 -49 -51 -5 -15 -24 -58 -60 -7 -17 -26 -65 -9 -19 -28 -11 -21 -30 -1 -2 -12 0
-47 -26 -17 -7 -60 -58 -24 -15 -5 -51 -49 -12 -2 -30 -28 -1 -21 -19 -11 -9 -65 0
-58 -60 -7 -17 -26 -47 -65 -9 -19 -28 -49 -11 -21 -30 -51 -1 -2 -5 -12 -15 -24 0
-58 -49 -28 -19 -9 -65 -47 -26 -17 -7 -60 -24 -15 -5 -51 -12 -2 -30 -1 -21 -11 0
-65 -9 -19 -28 -49 -58 -11 -21 -30 -51 -60 -1 -2 -5 -7 -12 -15 -17 -24 -26 -47 0
-11 -21 -30 -51 -60 -65 -1 -2 -5 -7 -9 -12 -15 -17 -19 -24 -26 -28 -47 -49 -58 0
-65 -60 -51 -30 -21 -11 -58 -49 -28 -19 -9 -47 -26 -17 -7 -24 -15 -5 -12 -2 -1 0
-1 -2 -5 -7 -10 -11 -12 -15 -17 -20 -21 -24 -26 -29 -30 -47 -50 -51 -59 -60 -66 0
-11 -10 -7 -5 -2 -1 -66 -60 -51 -30 -21 -59 -50 -29 -20 -47 -26 -17 -24 -15 -12 0
-1 -21 -20 -17 -15 -12 -11 -10 -7 -5 -2 -66 -60 -51 -30 -59 -50 -29 -47 -26 -24 0
-12 -15 -17 -20 -21 -1 -24 -26 -29 -30 -2 -47 -50 -51 -5 -59 -60 -7 -66 -10 -11 0
-12 -2 -30 -29 -26 -24 -1 -21 -20 -17 -15 -11 -10 -7 -5 -66 -60 -51 -59 -50 -47 0
-24 -26 -29 -30 -2 -12 -47 -50 -51 -5 -15 -59 -60 -7 -17 -66 -10 -20 -11 -21 -1 0
-24 -15 -5 -51 -50 -47 -12 -2 -30 -29 -26 -1 -21 -20 -17 -11 -10 -7 -66 -60 -59 0
-47 -50 -51 -5 -15 -24 -59 -60 -7 -17 -26 -66 -10 -20 -29 -11 -21 -30 -1 -2 -12 0
-47 -26 -17 -7 -60 -59 -24 -15 -5 -51 -50 -12 -2 -30 -29 -1 -21 -20 -11 -10 -66 0
-59 -60 -7 -17 -26 -47 -66 -10 -20 -29 -50 -11 -21 -30 -51 -1 -2 -5 -12 -15 -24 0
-59 -50 -29 -20 -10 -66 -47 -26 -17 -7 -60 -24 -15 -5 -51 -12 -2 -30 -1 -21 -11 0
-66 -10 -20 -29 -50 -59 -11 -21 -30 -51 -60 -1 -2 -5 -7 -12 -15 -17 -24 -26 -47 0
-11 -21 -30 -51 -60 -66 -1 -2 -5 -7 -10 -12 -15 -17 -20 -24 -26 -29 -47 -50 -59 0
-66 -60 -51 -30 -21 -11 -59 -50 -29 -20 -10 -47 -26 -17 -7 -24 -15 -5 -12 -2 -1 0
-1 -2 -5 -8 -9 -10 -12 -15 -18 -19 -20 -24 -27 -28 -29 -48 -49 -50 -61 -62 -64 0
-10 -9 -8 -5 -2 -1 -64 -62 -50 -29 -20 -61 -49 -28 -19 -48 -27 -18 -24 -15 -12 0
-1 -20 -19 -18 -15 -12 -10 -9 -8 -5 -2 -64 -62 -50 -29 -61 -49 -28 -48 -27 -24 0
-12 -15 -18 -19 -20 -1 -24 -27 -28 -29 -2 -48 -49 -50 -5 -61 -62 -8 -64 -9 -10 0
-12 -2 -29 -28 -27 -24 -1 -20 -19 -18 -15 -10 -9 -8 -5 -64 -62 -50 -61 -49 -48 0
-24 -27 -28 -29 -2 -12 -48 -49 -50 -5 -15 -61 -62 -8 -18 -64 -9 -19 -10 -20 -1 0
-24 -15 -5 -50 -49 -48 -12 -2 -29 -28 -27 -1 -20 -19 -18 -10 -9 -8 -64 -62 -61 0
-48 -49 -50 -5 -15 -24 -61 -62 -8 -18 -27 -64 -9 -19 -28 -10 -20 -29 -1 -2 -12 0
-48 -27 -18 -8 -62 -61 -24 -15 -5 -50 -49 -12 -2 -29 -28 -1 -20 -19 -10 -9 -64 0
-61 -62 -8 -18 -27 -48 -64 -9 -19 -28 -49 -10 -20 -29 -50 -1 -2 -5 -12 -15 -24 0
-61 -49 -28 -19 -9 -64 -48 -27 -18 -8 -62 -24 -15 -5 -50 -12 -2 -29 -1 -20 -10 0
-64 -9 -19 -28 -49 -61 -10 -20 -29 -50 -62 -1 -2 -5 -8 -12 -15 -18 -24 -27 -48 0
-10 -20 -29 -50 -62 -64 -1 -2 -5 -8 -9 -12 -15 -18 -19 -24 -27 -28 -48 -49 -61 0
-64 -62 -50 -29 -20 -10 -61 -49 -28 -19 -9 -48 -27 -18 -8 -24 -15 -5 -12 -2 -1 0
-1 -2 -5 -8 -9 -11 -12 -15 -18 -19 -21 -24 -27 -28 -30 -48 -49 -51 -61 -63 -65 0
-11 -9 -8 -5 -2 -1 -65 -63 -51 -30 -21 -61 -49 -28 -19 -48 -27 -18 -24 -15 -12 0
-1 -21 -19 -18 -15 -12 -11 -9 -8 -5 -2 -65 -63 -51 -30 -61 -49 -28 -48 -27 -24 0
-12 -15 -18 -19 -21 -1 -24 -27 -28 -30 -2 -48 -49 -51 -5 -61 -63 -8 -65 -9 -11 0
-12 -2 -30 -28 -27 -24 -1 -21 -19 -18 -15 -11 -9 -8 -5 -65 -63 -51 -61 -49 -48 0
-24 -27 -28 -30 -2 -12 -48 -49 -51 -5 -15 -61 -63 -8 -18 -65 -9 -19 -11 -21 -1 0
-24 -15 -5 -51 -49 -48 -12 -2 -30 -28 -27 -1 -21 -19 -18 -11 -9 -8 -65 -63 -61 0
-48 -49 -51 -5 -15 -24 -61 -63 -8 -18 -27 -65 -9 -19 -28 -11 -21 -30 -1 -2 -12 0
-48 -27 -18 -8 -63 -61 -24 -15 -5 -51 -49 -12 -2 -30 -28 -1 -21 -19 -11 -9 -65 0
-61 -63 -8 -18 -27 -48 -65 -9 -19 -28 -49 -11 -21 -30 -51 -1 -2 -5 -12 -15 -24 0
-61 -49 -28 -19 -9 -65 -48 -27 -18 -8 -63 -24 -15 -5 -51 -12 -2 -30 -1 -21 -11 0
-65 -9 -19 -28 -49 -61 -11 -21 -30 -51 -63 -1 -2 -5 -8 -12 -15 -18 -24 -27 -48 0
-11 -21 -30 -51 -63 -65 -1 -2 -5 -8 -9 -12 -15 -18 -19 -24 -27 -28 -48 -49 -61 0
-65 -63 -51 -30 -21 -11 -61 -49 -28 -19 -9 -48 -27 -18 -8 -24 -15 -5 -12 -2 -1 0
-1 -2 -5 -8 -10 -11 -12 -15 -18 -20 -21 -24 -27 -29 -30 -48 -50 -51 -62 -63 -66 0
-11 -10 -8 -5 -2 -1 -66 -63 -51 -30 -21 -62 -50 -29 -20 -48 -27 -18 -24 -15 -12 0
-1 -21 -20 -18 -15 -12 -11 -10 -8 -5 -2 -66 -63 -51 -30 -62 -50 -29 -48 -27 -24 0
-12 -15 -18 -20 -21 -1 -24 -27 -29 -30 -2 -48 -50 -51 -5 -62 -63 -8 -66 -10 -11 0
-12 -2 -30 -29 -27 -24 -1 -21 -20 -18 -15 -11 -10 -8 -5 -66 -63 -51 -62 -50 -48 0
-24 -27 -29 -30 -2 -12 -48 -50 -51 -5 -15 -62 -63 -8 -18 -66 -10 -20 -11 -21 -1 0
-24 -15 -5 -51 -50 -48 -12 -2 -30 -29 -27 -1 -21 -20 -18 -11 -10 -8 -66 -63 -62 0
-48 -50 -51 -5 -15 -24 -62 -63 -8 -18 -27 -66 -10 -20 -29 -11 -21 -30 -1 -2 -12 0
-48 -27 -18 -8 -63 -62 -24 -15 -5 -51 -50 -12 -2 -30 -29 -1 -21 -20 -11 -10 -66 0
-62 -63 -8 -18 -27 -48 -66 -10 -20 -29 -50 -11 -21 -30 -51 -1 -2 -5 -12 -15 -24 0
-62 -50 -29 -20 -10 -66 -48 -27 -18 -8 -63 -24 -15 -5 -51 -12 -2 -30 -1 -21 -11 0
-66 -10 -20 -29 -50 -62 -11 -21 -30 -51 -63 -1 -2 -5 -8 -12 -15 -18 -24 -27 -48 0
-11 -21 -30 -51 -63 -66 -1 -2 -5 -8 -10 -12 -15 -18 -20 -24 -27 -29 -48 -50 -62 0
-66 -63 -51 -30 -21 -11 -62 -50 -29 -20 -10 -48 -27 -18 -8 -24 -15 -5 -12 -2 -1 0
-1 -2 -5 -9 -10 -11 -12 -15 -19 -20 -21 -24 -28 -29 -30 -49 -50 -51 -64 -65 -66 0
-11 -10 -9 -5 -2 -1 -66 -65 -51 -30 -21 -64 -50 -29 -20 -49 -28 -19 -24 -15 -12 0
-1 -21 -20 -19 -15 -12 -11 -10 -9 -5 -2 -66 -65 -51 -30 -64 -50 -29 -49 -28 -24 0
-12 -15 -19 -20 -21 -1 -24 -28 -29 -30 -2 -49 -50 -51 -5 -64 -65 -9 -66 -10 -11 0
-12 -2 -30 -29 -28 -24 -1 -21 -20 -19 -15 -11 -10 -9 -5 -66 -65 -51 -64 -50 -49 0
-24 -28 -29 -30 -2 -12 -49 -50 -51 -5 -15 -64 -65 -9 -19 -66 -10 -20 -11 -21 -1 0
-24 -15 -5 -51 -50 -49 -12 -2 -30 -29 -28 -1 -21 -20 -19 -11 -10 -9 -66 -65 -64 0
-49 -50 -51 -5 -15 -24 -64 -65 -9 -19 -28 -66 -10 -20 -29 -11 -21 -30 -1 -2 -12 0
-49 -28 -19 -9 -65 -64 -24 -15 -5 -51 -50 -12 -2 -30 -29 -1 -21 -20 -11 -10 -66 0
-64 -65 -9 -19 -28 -49 -66 -10 -20 -29 -50 -11 -21 -30 -51 -1 -2 -5 -12 -15 -24 0
-64 -50 -29 -20 -10 -66 -49 -28 -19 -9 -65 -24 -15 -5 -51 -12 -2 -30 -1 -21 -11 0
-66 -10 -20 -29 -50 -64 -11 -21 -30 -51 -65 -1 -2 -5 -9 -12 -15 -19 -24 -28 -49 0
-11 -21 -30 -51 -65 -66 -1 -2 -5 -9 -10 -12 -15 -19 -20 -24 -28 -29 -49 -50 -64 0
-66 -65 -51 -30 -21 -11 -64 -50 -29 -20 -10 -49 -28 -19 -9 -24 -15 -5 -12 -2 -1 0
-1 -2 -6 -7 -8 -9 -12 -16 -17 -18 -19 -25 -26 -27 -28 -52 -53 -54 -57 -58 -61 0
-9 -8 -7 -6 -2 -1 -61 -58 -54 -28 -19 -57 -53 -27 -18 -52 -26 -17 -25 -16 -12 0
-1 -19 -18 -17 -16 -12 -9 -8 -7 -6 -2 -61 -58 -54 -28 -57 -53 -27 -52 -26 -25 0
-12 -16 -17 -18 -19 -1 -25 -26 -27 -28 -2 -52 -53 -54 -6 -57 -58 -7 -61 -8 -9 0
-12 -2 -28 -27 -26 -25 -1 -19 -18 -17 -16 -9 -8 -7 -6 -61 -58 -54 -57 -53 -52 0
-25 -26 -27 -28 -2 -12 -52 -53 -54 -6 -16 -57 -58 -7 -17 -61 -8 -18 -9 -19 -1 0
-25 -16 -6 -54 -53 -52 -12 -2 -28 -27 -26 -1 -19 -18 -17 -9 -8 -7 -61 -58 -57 0
-52 -53 -54 -6 -16 -25 -57 -58 -7 -17 -26 -61 -8 -18 -27 -9 -19 -28 -1 -2 -12 0
-52 -26 -17 -7 -58 -57 -25 -16 -6 -54 -53 -12 -2 -28 -27 -1 -19 -18 -9 -8 -61 0
-57 -58 -7 -17 -26 -52 -61 -8 -18 -27 -53 -9 -19 -28 -54 -1 -2 -6 -12 -16 -25 0
-57 -53 -27 -18 -8 -61 -52 -26 -17 -7 -58 -25 -16 -6 -54 -12 -2 -28 -1 -19 -9 0
-61 -8 -18 -27 -53 -57 -9 -19 -28 -54 -58 -1 -2 -6 -7 -12 -16 -17 -25 -26 -52 0
-9 -19 -28 -54 -58 -61 -1 -2 -6 -7 -8 -12 -16 -17 -18 -25 -26 -27 -52 -53 -57 0
-61 -58 -54 -28 -19 -9 -57 -53 -27 -18 -8 -52 -26 -17 -7 -25 -16 -6 -12 -2 -1 0
-1 -2 -6 -7 -8 -10 -12 -16 -17 -18 -20 -25 -26 -27 -29 -52 -53 -55 -57 -59 -62 0
-10 -8 -7 -6 -2 -1 -62 -59 -55 -29 -20 -57 -53 -27 -18 -52 -26 -17 -25 -16 -12 0
-1 -20 -18 -17 -16 -12 -10 -8 -7 -6 -2 -62 -59 -55 -29 -57 -53 -27 -52 -26 -25 0
-12 -16 -17 -18 -20 -1 -25 -26 -27 -29 -2 -52 -53 -55 -6 -57 -59 -7 -62 -8 -10 0
-12 -2 -29 -27 -26 -25 -1 -20 -18 -17 -16 -10 -8 -7 -6 -62 -59 -55 -57 -53 -52 0
-25 -26 -27 -29 -2 -12 -52 -53 -55 -6 -16 -57 -59 -7 -17 -62 -8 -18 -10 -20 -1 0
-25 -16 -6 -55 -53 -52 -12 -2 -29 -27 -26 -1 -20 -18 -17 -10 -8 -7 -62 -59 -57 0
-52 -53 -55 -6 -16 -25 -57 -59 -7 -17 -26 -62 -8 -18 -27 -10 -20 -29 -1 -2 -12 0
-52 -26 -17 -7 -59 -57 -25 -16 -6 -55 -53 -12 -2 -29 -27 -1 -20 -18 -10 -8 -62 0
-57 -59 -7 -17 -26 -52 -62 -8 -18 -27 -53 -10 -20 -29 -55 -1 -2 -6 -12 -16 -25 0
-57 -53 -27 -18 -8 -62 -52 -26 -17 -7 -59 -25 -16 -6 -55 -12 -2 -29 -1 -20 -10 0
-62 -8 -18 -27 -53 -57 -10 -20 -29 -55 -59 -1 -2 -6 -7 -12 -16 -17 -25 -26 -52 0
-10 -20 -29 -55 -59 -62 -1 -2 -6 -7 -8 -12 -16 -17 -18 -25 -26 -27 -52 -53 -57 0
-62 -59 -55 -29 -20 -10 -57 -53 -27 -18 -8 -52 -26 -17 -7 -25 -16 -6 -12 -2 -1 0
-1 -2 -6 -7 -8 -11 -12 -16 -17 -18 -21 -25 -26 -27 -30 -52 -53 -56 -57 -60 -63 0
-11 -8 -7 -6 -2 -1 -63 -60 -56 -30 -21 -57 -53 -27 -18 -52 -26 -17 -25 -16 -12 0
-1 -21 -18 -17 -16 -12 -11 -8 -7 -6 -2 -63 -60 -56 -30 -57 -53 -27 -52 -26 -25 0
-12 -16 -17 -18 -21 -1 -25 -26 -27 -30 -2 -52 -53 -56 -6 -57 -60 -7 -63 -8 -11 0
-12 -2 -30 -27 -26 -25 -1 -21 -18 -17 -16 -11 -8 -7 -6 -63 -60 -56 -57 -53 -52 0
-25 -26 -27 -30 -2 -12 -52 -53 -56 -6 -16 -57 -60 -7 -17 -63 -8 -18 -11 -21 -1 0
-25 -16 -6 -56 -53 -52 -12 -2 -30 -27 -26 -1 -21 -18 -17 -11 -8 -7 -63 -60 -57 0
-52 -53 -56 -6 -16 -25 -57 -60 -7 -17 -26 -63 -8 -18 -27 -11 -21 -30 -1 -2 -12 0
-52 -26 -17 -7 -60 -57 -25 -16 -6 -56 -53 -12 -2 -30 -27 -1 -21 -18 -11 -8 -63 0
-57 -60 -7 -17 -26 -52 -63 -8 -18 -27 -53 -11 -21 -30 -56 -1 -2 -6 -12 -16 -25 0
-57 -53 -27 -18 -8 -63 -52 -26 -17 -7 -60 -25 -16 -6 -56 -12 -2 -30 -1 -21 -11 0
-63 -8 -18 -27 -53 -57 -11 -21 -30 -56 -60 -1 -2 -6 -7 -12 -16 -17 -25 -26 -52 0
-11 -21 -30 -56 -60 -63 -1 -2 -6 -7 -8 -12 -16 -17 -18 -25 -26 -27 -52 -53 -57 0
-63 -60 -56 -30 -21 -11 -57 -53 -27 -18 -8 -52 -26 -17 -7 -25 -16 -6 -12 -2 -1 0
-1 -2 -6 -7 -9 -10 -12 -16 -17 -19 -20 -25 -26 -28 -29 -52 -54 -55 -58 -59 -64 0
-10 -9 -7 -6 -2 -1 -64 -59 -55 -29 -20 -58 -54 -28 -19 -52 -26 -17 -25 -16 -12 0
-1 -20 -19 -17 -16 -12 -10 -9 -7 -6 -2 -64 -59 -55 -29 -58 -54 -28 -52 -26 -25 0
-12 -16 -17 -19 -20 -1 -25 -26 -28 -29 -2 -52 -54 -55 -6 -58 -59 -7 -64 -9 -10 0
-12 -2 -29 -28 -26 -25 -1 -20 -19 -17 -16 -10 -9 -7 -6 -64 -59 -55 -58 -54 -52 0
-25 -26 -28 -29 -2 -12 -52 -54 -55 -6 -16 -58 -59 -7 -17 -64 -9 -19 -10 -20 -1 0
-25 -16 -6 -55 -54 -52 -12 -2 -29 -28 -26 -1 -20 -19 -17 -10 -9 -7 -64 -59 -58 0
-52 -54 -55 -6 -16 -25 -58 -59 -7 -17 -26 -64 -9 -19 -28 -10 -20 -29 -1 -2 -12 0
-52 -26 -17 -7 -59 -58 -25 -16 -6 -55 -54 -12 -2 -29 -28 -1 -20 -19 -10 -9 -64 0
-58 -59 -7 -17 -26 -52 -64 -9 -19 -28 -54 -10 -20 -29 -55 -1 -2 -6 -12 -16 -25 0
-58 -54 -28 -19 -9 -64 -52 -26 -17 -7 -59 -25 -16 -6 -55 -12 -2 -29 -1 -20 -10 0
-64 -9 -19 -28 -54 -58 -10 -20 -29 -55 -59 -1 -2 -6 -7 -12 -16 -17 -25 -26 -52 0
-10 -20 -29 -55 -59 -64 -1 -2 -6 -7 -9 -12 -16 -17 -19 -25 -26 -28 -52 -54 -58 0
-64 -59 -55 -29 -20 -10 -58 -54 -28 -19 -9 -52 -26 -17 -7 -25 -16 -6 -12 -2 -1 0
-1 -2 -6 -7 -9 -11 -12 -16 -17 -19 -21 -25 -26 -28 -30 -52 -54 -56 -58 -60 -65 0
-11 -9 -7 -6 -2 -1 -65 -60 -56 -30 -21 -58 -54 -28 -19 -52 -26 -17 -25 -16 -12 0
-1 -21 -19 -17 -16 -12 -11 -9 -7 -6 -2 -65 -60 -56 -30 -58 -54 -28 -52 -26 -25 0
-12 -16 -17 -19 -21 -1 -25 -26 -28 -30 -2 -52 -54 -56 -6 -58 -60 -7 -65 -9 -11 0
-12 -2 -30 -28 -26 -25 -1 -21 -19 -17 -16 -11 -9 -7 -6 -65 -60 -56 -58 -54 -52 0
-25 -26 -28 -30 -2 -12 -52 -54 -56 -6 -16 -58 -60 -7 -17 -65 -9 -19 -11 -21 -1 0
-25 -16 -6 -56 -54 -52 -12 -2 -30 -28 -26 -1 -21 -19 -17 -11 -9 -7 -65 -60 -58 0
-52 -54 -56 -6 -16 -25 -58 -60 -7 -17 -26 -65 -9 -19 -28 -11 -21 -30 -1 -2 -12 0
-52 -26 -17 -7 -60 -58 -25 -16 -6 -56 -54 -12 -2 -30 -28 -1 -21 -19 -11 -9 -65 0
-58 -60 -7 -17 -26 -52 -65 -9 -19 -28 -54 -11 -21 -30 -56 -1 -2 -6 -12 -16 -25 0
-58 -54 -28 -19 -9 -65 -52 -26 -17 -7 -60 -25 -16 -6 -56 -12 -2 -30 -1 -21 -11 0
-65 -9 -19 -28 -54 -58 -11 -21 -30 -56 -60 -1 -2 -6 -7 -12 -16 -17 -25 -26 -52 0
-11 -21 -30 -56 -60 -65 -1 -2 -6 -7 -9 -12 -16 -17 -19 -25 -26 -28 -52 -54 -58 0
-65 -60 -56 -30 -21 -11 -58 -54 -28 -19 -9 -52 -26 -17 -7 -25 -16 -6 -12 -2 -1 0
-1 -2 -6 -7 -10 -11 -12 -16 -17 -20 -21 -25 -26 -29 -30 -52 -55 -56 -59 -60 -66 0
-11 -10 -7 -6 -2 -1 -66 -60 -56 -30 -21 -59 -55 -29 -20 -52 -26 -17 -25 -16 -12 0
-1 -21 -20 -17 -16 -12 -11 -10 -7 -6 -2 -66 -60 -56 -30 -59 -55 -29 -52 -26 -25 0
-12 -16 -17 -20 -21 -1 -25 -26 -29 -30 -2 -52 -55 -56 -6 -59 -60 -7 -66 -10 -11 0
-12 -2 -30 -29 -26 -25 -1 -21 -20 -17 -16 -11 -10 -7 -6 -66 -60 -56 -59 -55 -52 0
-25 -26 -29 -30 -2 -12 -52 -55 -56 -6 -16 -59 -60 -7 -17 -66 -10 -20 -11 -21 -1 0
-25 -16 -6 -56 -55 -52 -12 -2 -30 -29 -26 -1 -21 -20 -17 -11 -10 -7 -66 -60 -59 0
-52 -55 -56 -6 -16 -25 -59 -60 -7 -17 -26 -66 -10 -20 -29 -11 -21 -30 -1 -2 -12 0
-52 -26 -17 -7 -60 -59 -25 -16 -6 -56 -55 -12 -2 -30 -29 -1 -21 -20 -11 -10 -66 0
-59 -60 -7 -17 -26 -52 -66 -10 -20 -29 -55 -11 -21 -30 -56 -1 -2 -6 -12 -16 -25 0
-59 -55 -29 -20 -10 -66 -52 -26 -17 -7 -60 -25 -16 -6 -56 -12 -2 -30 -1 -21 -11 0
-66 -10 -20 -29 -55 -59 -11 -21 -30 -56 -60 -1 -2 -6 -7 -12 -16 -17 -25 -26 -52 0
-11 -21 -30 -56 -60 -66 -1 -2 -6 -7 -10 -12 -16 -17 -20 -25 -26 -29 -52 -55 -59 0
-66 -60 -56 -30 -21 -11 -59 -55 -29 -20 -10 -52 -26 -17 -7 -25 -16 -6 -12 -2 -1 0
-1 -2 -6 -8 -9 -10 -12 -16 -18 -19 -20 -25 -27 -28 -29 -53 -54 -55 -61 -62 -64 0
-10 -9 -8 -6 -2 -1 -64 -62 -55 -29 -20 -61 -54 -28 -19 -53 -27 -18 -25 -16 -12 0
-1 -20 -19 -18 -16 -12 -10 -9 -8 -6 -2 -64 -62 -55 -29 -61 -54 -28 -53 -27 -25 0
-12 -16 -18 -19 -20 -1 -25 -27 -28 -29 -2 -53 -54 -55 -6 -61 -62 -8 -64 -9 -10 0
-12 -2 -29 -28 -27 -25 -1 -20 -19 -18 -16 -10 -9 -8 -6 -64 -62 -55 -61 -54 -53 0
-25 -27 -28 -29 -2 -12 -53 -54 -55 -6 -16 -61 -62 -8 -18 -64 -9 -19 -10 -20 -1 0
-25 -16 -6 -55 -54 -53 -12 -2 -29 -28 -27 -1 -20 -19 -18 -10 -9 -8 -64 -62 -61 0
-53 -54 -55 -6 -16 -25 -61 -62 -8 -18 -27 -64 -9 -19 -28 -10 -20 -29 -1 -2 -12 0
-53 -27 -18 -8 -62 -61 -25 -16 -6 -55 -54 -12 -2 -29 -28 -1 -20 -19 -10 -9 -64 0
-61 -62 -8 -18 -27 -53 -64 -9 -19 -28 -54 -10 -20 -29 -55 -1 -2 -6 -12 -16 -25 0
-61 -54 -28 -19 -9 -64 -53 -27 -18 -8 -62 -25 -16 -6 -55 -12 -2 -29 -1 -20 -10 0
-64 -9 -19 -28 -54 -61 -10 -20 -29 -55 -62 -1 -2 -6 -8 -12 -16 -18 -25 -27 -53 0
-10 -20 -29 -55 -62 -64 -1 -2 -6 -8 -9 -12 -16 -18 -19 -25 -27 -28 -53 -54 -61 0
-64 -62 -55 -29 -20 -10 -61 -54 -28 -19 -9 -53 -27 -18 -8 -25 -16 -6 -12 -2 -1 0
-1 -2 -6 -8 -9 -11 -12 -16 -18 -19 -21 -25 -27 -28 -30 -53 -54 -56 -61 -63 -65 0
-11 -9 -8 -6 -2 -1 -65 -63 -56 -30 -21 -61 -54 -28 -19 -53 -27 -18 -25 -16 -12 0
-1 -21 -19 -18 -16 -12 -11 -9 -8 -6 -2 -65 -63 -56 -30 -61 -54 -28 -53 -27 -25 0
-12 -16 -18 -19 -21 -1 -25 -27 -28 -30 -2 -53 -54 -56 -6 -61 -63 -8 -65 -9 -11 0
-12 -2 -30 -28 -27 -25 -1 -21 -19 -18 -16 -11 -9 -8 -6 -65 -63 -56 -61 -54 -53 0
-25 -27 -28 -30 -2 -12 -53 -54 -56 -6 -16 -61 -63 -8 -18 -65 -9 -19 -11 -21 -1 0
-25 -16 -6 -56 -54 -53 -12 -2 -30 -28 -27 -1 -21 -19 -18 -11 -9 -8 -65 -63 -61 0
-53 -54 -56 -6 -16 -25 -61 -63 -8 -18 -27 -65 -9 -19 -28 -11 -21 -30 -1 -2 -12 0
-53 -27 -18 -8 -63 -61 -25 -16 -6 -56 -54 -12 -2 -30 -28 -1 -21 -19 -11 -9 -65 0
-61 -63 -8 -18 -27 -53 -65 -9 -19 -28 -54 -11 -21 -30 -56 -1 -2 -6 -12 -16 -25 0
-61 -54 -28 -19 -9 -65 -53 -27 -18 -8 -63 -25 -16 -6 -56 -12 -2 -30 -1 -21 -11 0
-65 -9 -19 -28 -54 -61 -11 -21 -30 -56 -63 -1 -2 -6 -8 -12 -16 -18 -25 -27 -53 0
-11 -21 -30 -56 -63 -65 -1 -2 -6 -8 -9 -12 -16 -18 -19 -25 -27 -28 -53 -54 -61 0
-65 -63 -56 -30 -21 -11 -61 -54 -28 -19 -9 -53 -27 -18 -8 -25 -16 -6 -12 -2 -1 0
-1 -2 -6 -8 -10 -11 -12 -16 -18 -20 -21 -25 -27 -29 -30 -53 -55 -56 -62 -63 -66 0
-11 -10 -8 -6 -2 -1 -66 -63 -56 -30 -21 -62 -55 -29 -20 -53 -27 -18 -25 -16 -12 0
-1 -21 -20 -18 -16 -12 -11 -10 -8 -6 -2 -66 -63 -56 -30 -62 -55 -29 -53 -27 -25 0
-12 -16 -18 -20 -21 -1 -25 -27 -29 -30 -2 -53 -55 -56 -6 -62 -63 -8 -66 -10 -11 0
-12 -2 -30 -29 -27 -25 -1 -21 -20 -18 -16 -11 -10 -8 -6 -66 -63 -56 -62 -55 -53 0
-25 -27 -29 -30 -2 -12 -53 -55 -56 -6 -16 -62 -63 -8 -18 -66 -10 -20 -11 -21 -1 0
-25 -16 -6 -56 -55 -53 -12 -2 -30 -29 -27 -1 -21 -20 -18 -11 -10 -8 -66 -63 -62 0
-53 -55 -56 -6 -16 -25 -62 -63 -8 -18 -27 -66 -10 -20 -29 -11 -21 -30 -1 -2 -12 0
-53 -27 -18 -8 -63 -62 -25 -16 -6 -56 -55 -12 -2 -30 -29 -1 -21 -20 -11 -10 -66 0
-62 -63 -8 -18 -27 -53 -66 -10 -20 -29 -55 -11 -21 -30 -56 -1 -2 -6 -12 -16 -25 0
-62 -55 -29 -20 -10 -66 -53 -27 -18 -8 -63 -25 -16 -6 -56 -12 -2 -30 -1 -21 -11 0
-66 -10 -20 -29 -55 -62 -11 -21 -30 -56 -63 -1 -2 -6 -8 -12 -16 -18 -25 -27 -53 0
-11 -21 -30 -56 -63 -66 -1 -2 -6 -8 -10 -12 -16 -18 -20 -25 -27 -29 -53 -55 -62 0
-66 -63 -56 -30 -21 -11 -62 -55 -29 -20 -10 -53 -27 -18 -8 -25 -16 -6 -12 -2 -1 0
-1 -2 -6 -9 -10 -11 -12 -16 -19 -20 -21 -25 -28 -29 -30 -54 -55 -56 -64 -65 -66 0
-11 -10 -9 -6 -2 -1 -66 -65 -56 -30 -21 -64 -55 -29 -20 -54 -28 -19 -25 -16 -12 0
-1 -21 -20 -19 -16 -12 -11 -10 -9 -6 -2 -66 -65 -56 -30 -64 -55 -29 -54 -28 -25 0
-12 -16 -19 -20 -21 -1 -25 -28 -29 -30 -2 -54 -55 -56 -6 -64 -65 -9 -66 -10 -11 0
-12 -2 -30 -29 -28 -25 -1 -21 -20 -19 -16 -11 -10 -9 -6 -66 -65 -56 -64 -55 -54 0
-25 -28 -29 -30 -2 -12 -54 -55 -56 -6 -16 -64 -65 -9 -19 -66 -10 -20 -11 -21 -1 0
-25 -16 -6 -56 -55 -54 -12 -2 -30 -29 -28 -1 -21 -20 -19 -11 -10 -9 -66 -65 -64 0
-54 -55 -56 -6 -16 -25 -64 -65 -9 -19 -28 -66 -10 -20 -29 -11 -21 -30 -1 -2 -12 0
-54 -28 -19 -9 -65 -64 -25 -16 -6 -56 -55 -12 -2 -30 -29 -1 -21 -20 -11 -10 -66 0
-64 -65 -9 -19 -28 -54 -66 -10 -20 -29 -55 -11 -21 -30 -56 -1 -2 -6 -12 -16 -25 0
-64 -55 -29 -20 -10 -66 -54 -28 -19 -9 -65 -25 -16 -6 -56 -12 -2 -30 -1 -21 -11 0
-66 -10 -20 -29 -55 -64 -11 -21 -30 -56 -65 -1 -2 -6 -9 -12 -16 -19 -25 -28 -54 0
-11 -21 -30 -56 -65 -66 -1 -2 -6 -9 -10 -12 -16 -19 -20 -25 -28 -29 -54 -55 -64 0
-66 -65 -56 -30 -21 -11 -64 -55 -29 -20 -10 -54 -28 -19 -9 -25 -16 -6 -12 -2 -1 0
-1 -2 -7 -8 -9 -10 -12 -17 -18 -19 -20 -26 -27 -28 -29 -57 -58 -59 -61 -62 -64 0
-10 -9 -8 -7 -2 -1 -64 -62 -59 -29 -20 -61 -58 -28 -19 -57 -27 -18 -26 -17 -12 0
-1 -20 -19 -18 -17 -12 -10 -9 -8 -7 -2 -64 -62 -59 -29 -61 -58 -28 -57 -27 -26 0
-12 -17 -18 -19 -20 -1 -26 -27 -28 -29 -2 -57 -58 -59 -7 -61 -62 -8 -64 -9 -10 0
-12 -2 -29 -28 -27 -26 -1 -20 -19 -18 -17 -10 -9 -8 -7 -64 -62 -59 -61 -58 -57 0
-26 -27 -28 -29 -2 -12 -57 -58 -59 -7 -17 -61 -62 -8 -18 -64 -9 -19 -10 -20 -1 0
-26 -17 -7 -59 -58 -57 -12 -2 -29 -28 -27 -1 -20 -19 -18 -10 -9 -8 -64 -62 -61 0
-57 -58 -59 -7 -17 -26 -61 -62 -8 -18 -27 -64 -9 -19 -28 -10 -20 -29 -1 -2 -12 0
-57 -27 -18 -8 -62 -61 -26 -17 -7 -59 -58 -12 -2 -29 -28 -1 -20 -19 -10 -9 -64 0
-61 -62 -8 -18 -27 -57 -64 -9 -19 -28 -58 -10 -20 -29 -59 -1 -2 -7 -12 -17 -26 0
-61 -58 -28 -19 -9 -64 -57 -27 -18 -8 -62 -26 -17 -7 -59 -12 -2 -29 -1 -20 -10 0
-64 -9 -19 -28 -58 -61 -10 -20 -29 -59 -62 -1 -2 -7 -8 -12 -17 -18 -26 -27 -57 0
-10 -20 -29 -59 -62 -64 -1 -2 -7 -8 -9 -12 -17 -18 -19 -26 -27 -28 -57 -58 -61 0
-64 -62 -59 -29 -20 -10 -61 -58 -28 -19 -9 -57 -27 -18 -8 -26 -17 -7 -12 -2 -1 0
-1 -2 -7 -8 -9 -11 -12 -17 -18 -19 -21 -26 -27 -28 -30 -57 -58 -60 -61 -63 -65 0
-11 -9 -8 -7 -2 -1 -65 -63 -60 -30 -21 -61 -58 -28 -19 -57 -27 -18 -26 -17 -12 0
-1 -21 -19 -18 -17 -12 -11 -9 -8 -7 -2 -65 -63 -60 -30 -61 -58 -28 -57 -27 -26 0
-12 -17 -18 -19 -21 -1 -26 -27 -28 -30 -2 -57 -58 -60 -7 -61 -63 -8 -65 -9 -11 0
-12 -2 -30 -28 -27 -26 -1 -21 -19 -18 -17 -11 -9 -8 -7 -65 -63 -60 -61 -58 -57 0
-26 -27 -28 -30 -2 -12 -57 -58 -60 -7 -17 -61 -63 -8 -18 -65 -9 -19 -11 -21 -1 0
-26 -17 -7 -60 -58 -57 -12 -2 -30 -28 -27 -1 -21 -19 -18 -11 -9 -8 -65 -63 -61 0
-57 -58 -60 -7 -17 -26 -61 -63 -8 -18 -27 -65 -9 -19 -28 -11 -21 -30 -1 -2 -12 0
-57 -27 -18 -8 -63 -61 -26 -17 -7 -60 -58 -12 -2 -30 -28 -1 -21 -19 -11 -9 -65 0
-61 -63 -8 -18 -27 -57 -65 -9 -19 -28 -58 -11 -21 -30 -60 -1 -2 -7 -12 -17 -26 0
-61 -58 -28 -19 -9 -65 -57 -27 -18 -8 -63 -26 -17 -7 -60 -12 -2 -30 -1 -21 -11 0
-65 -9 -19 -28 -58 -61 -11 -21 -30 -60 -63 -1 -2 -7 -8 -12 -17 -18 -26 -27 -57 0
-11 -21 -30 -60 -63 -65 -1 -2 -7 -8 -9 -12 -17 -18 -19 -26 -27 -28 -57 -58 -61 0
-65 -63 -60 -30 -21 -11 -61 -58 -28 -19 -9 -57 -27 -18 -8 -26 -17 -7 -12 -2 -1 0
-1 -2 -7 -8 -10 -11 -12 -17 -18 -20 -21 -26 -27 -29 -30 -57 -59 -60 -62 -63 -66 0
-11 -10 -8 -7 -2 -1 -66 -63 -60 -30 -21 -62 -59 -29 -20 -57 -27 -18 -26 -17 -12 0
-1 -21 -20 -18 -17 -12 -11 -10 -8 -7 -2 -66 -63 -60 -30 -62 -59 -29 -57 -27 -26 0
-12 -17 -18 -20 -21 -1 -26 -27 -29 -30 -2 -57 -59 -60 -7 -62 -63 -8 -66 -10 -11 0
-12 -2 -30 -29 -27 -26 -1 -21 -20 -18 -17 -11 -10 -8 -7 -66 -63 -60 -62 -59 -57 0
-26 -27 -29 -30 -2 -12 -57 -59 -60 -7 -17 -62 -63 -8 -18 -66 -10 -20 -11 -21 -1 0
-26 -17 -7 -60 -59 -57 -12 -2 -30 -29 -27 -1 -21 -20 -18 -11 -10 -8 -66 -63 -62 0
-57 -59 -60 -7 -17 -26 -62 -63 -8 -18 -27 -66 -10 -20 -29 -11 -21 -30 -1 -2 -12 0
-57 -27 -18 -8 -63 -62 -26 -17 -7 -60 -59 -12 -2 -30 -29 -1 -21 -20 -11 -10 -66 0
-62 -63 -8 -18 -27 -57 -66 -10 -20 -29 -59 -11 -21 -30 -60 -1 -2 -7 -12 -17 -26 0
-62 -59 -29 -20 -10 -66 -57 -27 -18 -8 -63 -26 -17 -7 -60 -12 -2 -30 -1 -21 -11 0
-66 -10 -20 -29 -59 -62 -11 -21 -30 -60 -63 -1 -2 -7 -8 -12 -17 -18 -26 -27 -57 0
-11 -21 -30 -60 -63 -66 -1 -2 -7 -8 -10 -12 -17 -18 -20 -26 -27 -29 -57 -59 -62 0
-66 -63 -60 -30 -21 -11 -62 -59 -29 -20 -10 -57 -27 -18 -8 -26 -17 -7 -12 -2 -1 0
-1 -2 -7 -9 -10 -11 -12 -17 -19 -20 -21 -26 -28 -29 -30 -58 -59 -60 -64 -65 -66 0
-11 -10 -9 -7 -2 -1 -66 -65 -60 -30 -21 -64 -59 -29 -20 -58 -28 -19 -26 -17 -12 0
-1 -21 -20 -19 -17 -12 -11 -10 -9 -7 -2 -66 -65 -60 -30 -64 -59 -29 -58 -28 -26 0
-12 -17 -19 -20 -21 -1 -26 -28 -29 -30 -2 -58 -59 -60 -7 -64 -65 -9 -66 -10 -11 0
-12 -2 -30 -29 -28 -26 -1 -21 -20 -19 -17 -11 -10 -9 -7 -66 -65 -60 -64 -59 -58 0
-26 -28 -29 -30 -2 -12 -58 -59 -60 -7 -17 -64 -65 -9 -19 -66 -10 -20 -11 -21 -1 0
-26 -17 -7 -60 -59 -58 -12 -2 -30 -29 -28 -1 -21 -20 -19 -11 -10 -9 -66 -65 -64 0
-58 -59 -60 -7 -17 -26 -64 -65 -9 -19 -28 -66 -10 -20 -29 -11 -21 -30 -1 -2 -12 0
-58 -28 -19 -9 -65 -64 -26 -17 -7 -60 -59 -12 -2 -30 -29 -1 -21 -20 -11 -10 -66 0
-64 -65 -9 -19 -28 -58 -66 -10 -20 -29 -59 -11 -21 -30 -60 -1 -2 -7 -12 -17 -26 0
-64 -59 -29 -20 -10 -66 -58 -28 -19 -9 -65 -26 -17 -7 -60 -12 -2 -30 -1 -21 -11 0
-66 -10 -20 -29 -59 -64 -11 -21 -30 -60 -65 -1 -2 -7 -9 -12 -17 -19 -26 -28 -58 0
-11 -21 -30 -60 -65 -66 -1 -2 -7 -9 -10 -12 -17 -19 -20 -26 -28 -29 -58 -59 -64 0
-66 -65 -60 -30 -21 -11 -64 -59 -29 -20 -10 -58 -28 -19 -9 -26 -17 -7 -12 -2 -1 0
-1 -2 -8 -9 -10 -11 -12 -18 -19 -20 -21 -27 -28 -29 -30 -61 -62 -63 -64 -65 -66 0
-11 -10 -9 -8 -2 -1 -66 -65 -63 -30 -21 -64 -62 -29 -20 -61 -28 -19 -27 -18 -12 0
-1 -21 -20 -19 -18 -12 -11 -10 -9 -8 -2 -66 -65 -63 -30 -64 -62 -29 -61 -28 -27 0
-12 -18 -19 -20 -21 -1 -27 -28 -29 -30 -2 -61 -62 -63 -8 -64 -65 -9 -66 -10 -11 0
-12 -2 -30 -29 -28 -27 -1 -21 -20 -19 -18 -11 -10 -9 -8 -66 -65 -63 -64 -62 -61 0
-27 -28 -29 -30 -2 -12 -61 -62 -63 -8 -18 -64 -65 -9 -19 -66 -10 -20 -11 -21 -1 0
-27 -18 -8 -63 -62 -61 -12 -2 -30 -29 -28 -1 -21 -20 -19 -11 -10 -9 -66 -65 -64 0
-61 -62 -63 -8 -18 -27 -64 -65 -9 -19 -28 -66 -10 -20 -29 -11 -21 -30 -1 -2 -12 0
-61 -28 -19 -9 -65 -64 -27 -18 -8 -63 -62 -12 -2 -30 -29 -1 -21 -20 -11 -10 -66 0
-64 -65 -9 -19 -28 -61 -66 -10 -20 -29 -62 -11 -21 -30 -63 -1 -2 -8 -12 -18 -27 0
-64 -62 -29 -20 -10 -66 -61 -28 -19 -9 -65 -27 -18 -8 -63 -12 -2 -30 -1 -21 -11 0
-66 -10 -20 -29 -62 -64 -11 -21 -30 -63 -65 -1 -2 -8 -9 -12 -18 -19 -27 -28 -61 0
-11 -21 -30 -63 -65 -66 -1 -2 -8 -9 -10 -12 -18 -19 -20 -27 -28 -29 -61 -62 -64 0
-66 -65 -63 -30 -21 -11 -64 -62 -29 -20 -10 -61 -28 -19 -9 -27 -18 -8 -12 -2 -1 0
-1 -3 -4 -5 -6 -7 -13 -14 -15 -16 -17 -31 -32 -33 -34 -39 -40 -41 -46 -47 -52 0
-7 -6 -5 -4 -3 -1 -52 -47 -41 -34 -17 -46 -40 -33 -16 -39 -32 -15 -31 -14 -13 0
-1 -17 -16 -15 -14 -13 -7 -6 -5 -4 -3 -52 -47 -41 -34 -46 -40 -33 -39 -32 -31 0
-13 -14 -15 -16 -17 -1 -31 -32 -33 -34 -3 -39 -40 -41 -4 -46 -47 -5 -52 -6 -7 0
-13 -3 -34 -33 -32 -31 -1 -17 -16 -15 -14 -7 -6 -5 -4 -52 -47 -41 -46 -40 -39 0
-31 -32 -33 -34 -3 -13 -39 -40 -41 -4 -14 -46 -47 -5 -15 -52 -6 -16 -7 -17 -1 0
-31 -14 -4 -41 -40 -39 -13 -3 -34 -33 -32 -1 -17 -16 -15 -7 -6 -5 -52 -47 -46 0
-39 -40 -41 -4 -14 -31 -46 -47 -5 -15 -32 -52 -6 -16 -33 -7 -17 -34 -1 -3 -13 0
-39 -32 -15 -5 -47 -46 -31 -14 -4 -41 -40 -13 -3 -34 -33 -1 -17 -16 -7 -6 -52 0
-46 -47 -5 -15 -32 -39 -52 -6 -16 -33 -40 -7 -17 -34 -41 -1 -3 -4 -13 -14 -31 0
-46 -40 -33 -16 -6 -52 -39 -32 -15 -5 -47 -31 -14 -4 -41 -13 -3 -34 -1 -17 -7 0
-52 -6 -16 -33 -40 -46 -7 -17 -34 -41 -47 -1 -3 -4 -5 -13 -14 -15 -31 -32 -39 0
-7 -17 -34 -41 -47 -52 -1 -3 -4 -5 -6 -13 -14 -15 -16 -31 -32 -33 -39 -40 -46 0
-52 -47 -41 -34 -17 -7 -46 -40 -33 -16 -6 -39 -32 -15 -5 -31 -14 -4 -13 -3 -1 0
-1 -3 -4 -5 -6 -8 -13 -14 -15 -16 -18 -31 -32 -33 -35 -39 -40 -42 -46 -48 -53 0
-8 -6 -5 -4 -3 -1 -53 -48 -42 -35 -18 -46 -40 -33 -16 -39 -32 -15 -31 -14 -13 0
-1 -18 -16 -15 -14 -13 -8 -6 -5 -4 -3 -53 -48 -42 -35 -46 -40 -33 -39 -32 -31 0
-13 -14 -15 -16 -18 -1 -31 -32 -33 -35 -3 -39 -40 -42 -4 -46 -48 -5 -53 -6 -8 0
-13 -3 -35 -33 -32 -31 -1 -18 -16 -15 -14 -8 -6 -5 -4 -53 -48 -42 -46 -40 -39 0
-31 -32 -33 -35 -3 -13 -39 -40 -42 -4 -14 -46 -48 -5 -15 -53 -6 -16 -8 -18 -1 0
-31 -14 -4 -42 -40 -39 -13 -3 -35 -33 -32 -1 -18 -16 -15 -8 -6 -5 -53 -48 -46 0
-39 -40 -42 -4 -14 -31 -46 -48 -5 -15 -32 -53 -6 -16 -33 -8 -18 -35 -1 -3 -13 0
-39 -32 -15 -5 -48 -46 -31 -14 -4 -42 -40 -13 -3 -35 -33 -1 -18 -16 -8 -6 -53 0
-46 -48 -5 -15 -32 -39 -53 -6 -16 -33 -40 -8 -18 -35 -42 -1 -3 -4 -13 -14 -31 0
-46 -40 -33 -16 -6 -53 -39 -32 -15 -5 -48 -31 -14 -4 -42 -13 -3 -35 -1 -18 -8 0
-53 -6 -16 -33 -40 -46 -8 -18 -35 -42 -48 -1 -3 -4 -5 -13 -14 -15 -31 -32 -39 0
-8 -18 -35 -42 -48 -53 -1 -3 -4 -5 -6 -13 -14 -15 -16 -31 -32 -33 -39 -40 -46 0
-53 -48 -42 -35 -18 -8 -46 -40 -33 -16 -6 -39 -32 -15 -5 -31 -14 -4 -13 -3 -1 0
-1 -3 -4 -5 -6 -9 -13 -14 -15 -16 -19 -31 -32 -33 -36 -39 -40 -43 -46 -49 -54 0
-9 -6 -5 -4 -3 -1 -54 -49 -43 -36 -19 -46 -40 -33 -16 -39 -32 -15 -31 -14 -13 0
-1 -19 -16 -15 -14 -13 -9 -6 -5 -4 -3 -54 -49 -43 -36 -46 -40 -33 -39 -32 -31 0
-13 -14 -15 -16 -19 -1 -31 -32 -33 -36 -3 -39 -40 -43 -4 -46 -49 -5 -54 -6 -9 0
-13 -3 -36 -33 -32 -31 -1 -19 -16 -15 -14 -9 -6 -5 -4 -54 -49 -43 -46 -40 -39 0
-31 -32 -33 -36 -3 -13 -39 -40 -43 -4 -14 -46 -49 -5 -15 -54 -6 -16 -9 -19 -1 0
-31 -14 -4 -43 -40 -39 -13 -3 -36 -33 -32 -1 -19 -16 -15 -9 -6 -5 -54 -49 -46 0
-39 -40 -43 -4 -14 -31 -46 -49 -5 -15 -32 -54 -6 -16 -33 -9 -19 -36 -1 -3 -13 0
-39 -32 -15 -5 -49 -46 -31 -14 -4 -43 -40 -13 -3 -36 -33 -1 -19 -16 -9 -6 -54 0
-46 -49 -5 -15 -32 -39 -54 -6 -16 -33 -40 -9 -19 -36 -43 -1 -3 -4 -13 -14 -31 0
-46 -40 -33 -16 -6 -54 -39 -32 -15 -5 -49 -31 -14 -4 -43 -13 -3 -36 -1 -19 -9 0
-54 -6 -16 -33 -40 -46 -9 -19 -36 -43 -49 -1 -3 -4 -5 -13 -14 -15 -31 -32 -39 0
-9 -19 -36 -43 -49 -54 -1 -3 -4 -5 -6 -13 -14 -15 -16 -31 -32 -33 -39 -40 -46 0
-54 -49 -43 -36 -19 -9 -46 -40 -33 -16 -6 -39 -32 -15 -5 -31 -14 -4 -13 -3 -1 0
-1 -3 -4 -5 -6 -10 -13 -14 -15 -16 -20 -31 -32 -33 -37 -39 -40 -44 -46 -50 -55 0
-10 -6 -5 -4 -3 -1 -55 -50 -44 -37 -20 -46 -40 -33 -16 -39 -32 -15 -31 -14 -13 0
-1 -20 -16 -15 -14 -13 -10 -6 -5 -4 -3 -55 -50 -44 -37 -46 -40 -33 -39 -32 -31 0
-13 -14 -15 -16 -20 -1 -31 -32 -33 -37 -3 -39 -40 -44 -4 -46 -50 -5 -55 -6 -10 0
-13 -3 -37 -33 -32 -31 -1 -20 -16 -15 -14 -10 -6 -5 -4 -55 -50 -44 -46 -40 -39 0
-31 -32 -33 -37 -3 -13 -39 -40 -44 -4 -14 -46 -50 -5 -15 -55 -6 -16 -10 -20 -1 0
-31 -14 -4 -44 -40 -39 -13 -3 -37 -33 -32 -1 -20 -16 -15 -10 -6 -5 -55 -50 -46 0
-39 -40 -44 -4 -14 -31 -46 -50 -5 -15 -32 -55 -6 -16 -33 -10 -20 -37 -1 -3 -13 0
-39 -32 -15 -5 -50 -46 -31 -14 -4 -44 -40 -13 -3 -37 -33 -1 -20 -16 -10 -6 -55 0
-46 -50 -5 -15 -32 -39 -55 -6 -16 -33 -40 -10 -20 -37 -44 -1 -3 -4 -13 -14 -31 0
-46 -40 -33 -16 -6 -55 -39 -32 -15 -5 -50 -31 -14 -4 -44 -13 -3 -37 -1 -20 -10 0
-55 -6 -16 -33 -40 -46 -10 -20 -37 -44 -50 -1 -3 -4 -5 -13 -14 -15 -31 -32 -39 0
-10 -20 -37 -44 -50 -55 -1 -3 -4 -5 -6 -13 -14 -15 -16 -31 -32 -33 -39 -40 -46 0
-55 -50 -44 -37 -20 -10 -46 -40 -33 -16 -6 -39 -32 -15 -5 -31 -14 -4 -13 -3 -1 0
-1 -3 -4 -5 -6 -11 -13 -14 -15 -16 -21 -31 -32 -33 -38 -39 -40 -45 -46 -51 -56 0
-11 -6 -5 -4 -3 -1 -56 -51 -45 -38 -21 -46 -40 -33 -16 -39 -32 -15 -31 -14 -13 0
-1 -21 -16 -15 -14 -13 -11 -6 -5 -4 -3 -56 -51 -45 -38 -46 -40 -33 -39 -32 -31 0
-13 -14 -15 -16 -21 -1 -31 -32 -33 -38 -3 -39 -40 -45 -4 -46 -51 -5 -56 -6 -11 0
-13 -3 -38 -33 -32 -31 -1 -21 -16 -15 -14 -11 -6 -5 -4 -56 -51 -45 -46 -40 -39 0
-31 -32 -33 -38 -3 -13 -39 -40 -45 -4 -14 -46 -51 -5 -15 -56 -6 -16 -11 -21 -1 0
-31 -14 -4 -45 -40 -39 -13 -3 -38 -33 -32 -1 -21 -16 -15 -11 -6 -5 -56 -51 -46 0
-39 -40 -45 -4 -14 -31 -46 -51 -5 -15 -32 -56 -6 -16 -33 -11 -21 -38 -1 -3 -13 0
-39 -32 -15 -5 -51 -46 -31 -14 -4 -45 -40 -13 -3 -38 -33 -1 -21 -16 -11 -6 -56 0
-46 -51 -5 -15 -32 -39 -56 -6 -16 -33 -40 -11 -21 -38 -45 -1 -3 -4 -13 -14 -31 0
-46 -40 -33 -16 -6 -56 -39 -32 -15 -5 -51 -31 -14 -4 -45 -13 -3 -38 -1 -21 -11 0
-56 -6 -16 -33 -40 -46 -11 -21 -38 -45 -51 -1 -3 -4 -5 -13 -14 -15 -31 -32 -39 0
-11 -21 -38 -45 -51 -56 -1 -3 -4 -5 -6 -13 -14 -15 -16 -31 -32 -33 -39 -40 -46 0
-56 -51 -45 -38 -21 -11 -46 -40 -33 -16 -6 -39 -32 -15 -5 -31 -14 -4 -13 -3 -1 0
-1 -3 -4 -5 -7 -8 -13 -14 -15 -17 -18 -31 -32 -34 -35 -39 -41 -42 -47 -48 -57 0
-8 -7 -5 -4 -3 -1 -57 -48 -42 -35 -18 -47 -41 -34 -17 -39 -32 -15 -31 -14 -13 0
-1 -18 -17 -15 -14 -13 -8 -7 -5 -4 -3 -57 -48 -42 -35 -47 -41 -34 -39 -32 -31 0
-13 -14 -15 -17 -18 -1 -31 -32 -34 -35 -3 -39 -41 -42 -4 -47 -48 -5 -57 -7 -8 0
-13 -3 -35 -34 -32 -31 -1 -18 -17 -15 -14 -8 -7 -5 -4 -57 -48 -42 -47 -41 -39 0
-31 -32 -34 -35 -3 -13 -39 -41 -42 -4 -14 -47 -48 -5 -15 -57 -7 -17 -8 -18 -1 0
-31 -14 -4 -42 -41 -39 -13 -3 -35 -34 -32 -1 -18 -17 -15 -8 -7 -5 -57 -48 -47 0
-39 -41 -42 -4 -14 -31 -47 -48 -5 -15 -32 -57 -7 -17 -34 -8 -18 -35 -1 -3 -13 0
-39 -32 -15 -5 -48 -47 -31 -14 -4 -42 -41 -13 -3 -35 -34 -1 -18 -17 -8 -7 -57 0
-47 -48 -5 -15 -32 -39 -57 -7 -17 -34 -41 -8 -18 -35 -42 -1 -3 -4 -13 -14 -31 0
-47 -41 -34 -17 -7 -57 -39 -32 -15 -5 -48 -31 -14 -4 -42 -13 -3 -35 -1 -18 -8 0
-57 -7 -17 -34 -41 -47 -8 -18 -35 -42 -48 -1 -3 -4 -5 -13 -14 -15 -31 -32 -39 0
-8 -18 -35 -42 -48 -57 -1 -3 -4 -5 -7 -13 -14 -15 -17 -31 -32 -34 -39 -41 -47 0
-57 -48 -42 -35 -18 -8 -47 -41 -34 -17 -7 -39 -32 -15 -5 -31 -14 -4 -13 -3 -1 0
-1 -3 -4 -5 -7 -9 -13 -14 -15 -17 -19 -31 -32 -34 -36 -39 -41 -43 -47 -49 -58 0
-9 -7 -5 -4 -3 -1 -58 -49 -43 -36 -19 -47 -41 -34 -17 -39 -32 -15 -31 -14 -13 0
-1 -19 -17 -15 -14 -13 -9 -7 -5 -4 -3 -58 -49 -43 -36 -47 -41 -34 -39 -32 -31 0
-13 -14 -15 -17 -19 -1 -31 -32 -34 -36 -3 -39 -41 -43 -4 -47 -49 -5 -58 -7 -9 0
-13 -3 -36 -34 -32 -31 -1 -19 -17 -15 -14 -9 -7 -5 -4 -58 -49 -43 -47 -41 -39 0
-31 -32 -34 -36 -3 -13 -39 -41 -43 -4 -14 -47 -49 -5 -15 -58 -7 -17 -9 -19 -1 0
-31 -14 -4 -43 -41 -39 -13 -3 -36 -34 -32 -1 -19 -17 -15 -9 -7 -5 -58 -49 -47 0
-39 -41 -43 -4 -14 -31 -47 -49 -5 -15 -32 -58 -7 -17 -34 -9 -19 -36 -1 -3 -13 0
-39 -32 -15 -5 -49 -47 -31 -14 -4 -43 -41 -13 -3 -36 -34 -1 -19 -17 -9 -7 -58 0
-47 -49 -5 -15 -32 -39 -58 -7 -17 -34 -41 -9 -19 -36 -43 -1 -3 -4 -13 -14 -31 0
-47 -41 -34 -17 -7 -58 -39 -32 -15 -5 -49 -31 -14 -4 -43 -13 -3 -36 -1 -19 -9 0
-58 -7 -17 -34 -41 -47 -9 -19 -36 -43 -49 -1 -3 -4 -5 -13 -14 -15 -31 -32 -39 0
-9 -19 -36 -43 -49 -58 -1 -3 -4 -5 -7 -13 -14 -15 -17 -31 -32 -34 -39 -41 -47 0
-58 -49 -43 -36 -19 -9 -47 -41 -34 -17 -7 -39 -32 -15 -5 -31 -14 -4 -13 -3 -1 0
-1 -3 -4 -5 -7 -10 -13 -14 -15 -17 -20 -31 -32 -34 -37 -39 -41 -44 -47 -50 -59 0
-10 -7 -5 -4 -3 -1 -59 -50 -44 -37 -20 -47 -41 -34 -17 -39 -32 -15 -31 -14 -13 0
-1 -20 -17 -15 -14 -13 -10 -7 -5 -4 -3 -59 -50 -44 -37 -47 -41 -34 -39 -32 -31 0
-13 -14 -15 -17 -20 -1 -31 -32 -34 -37 -3 -39 -41 -44 -4 -47 -50 -5 -59 -7 -10 0
-13 -3 -37 -34 -32 -31 -1 -20 -17 -15 -14 -10 -7 -5 -4 -59 -50 -44 -47 -41 -39 0
-31 -32 -34 -37 -3 -13 -39 -41 -44 -4 -14 -47 -50 -5 -15 -59 -7 -17 -10 -20 -1 0
-31 -14 -4 -44 -41 -39 -13 -3 -37 -34 -32 -1 -20 -17 -15 -10 -7 -5 -59 -50 -47 0
-39 -41 -44 -4 -14 -31 -47 -50 -5 -15 -32 -59 -7 -17 -34 -10 -20 -37 -1 -3 -13 0
-39 -32 -15 -5 -50 -47 -31 -14 -4 -44 -41 -13 -3 -37 -34 -1 -20 -17 -10 -7 -59 0
-47 -50 -5 -15 -32 -39 -59 -7 -17 -34 -41 -10 -20 -37 -44 -1 -3 -4 -13 -14 -31 0
-47 -41 -34 -17 -7 -59 -39 -32 -15 -5 -50 -31 -14 -4 -44 -13 -3 -37 -1 -20 -10 0
-59 -7 -17 -34 -41 -47 -10 -20 -37 -44 -50 -1 -3 -4 -5 -13 -14 -15 -31 -32 -39 0
-10 -20 -37 -44 -50 -59 -1 -3 -4 -5 -7 -13 -14 -15 -17 -31 -32 -34 -39 -41 -47 0
-59 -50 -44 -37 -20 -10 -47 -41 -34 -17 -7 -39 -32 -15 -5 -31 -14 -4 -13 -3 -1 0
-1 -3 -4 -5 -7 -11 -13 -14 -15 -17 -21 -31 -32 -34 -38 -39 -41 -45 -47 -51 -60 0
-11 -7 -5 -4 -3 -1 -60 -51 -45 -38 -21 -47 -41 -34 -17 -39 -32 -15 -31 -14 -13 0
-1 -21 -17 -15 -14 -13 -11 -7 -5 -4 -3 -60 -51 -45 -38 -47 -41 -34 -39 -32 -31 0
-13 -14 -15 -17 -21 -1 -31 -32 -34 -38 -3 -39 -41 -45 -4 -47 -51 -5 -60 -7 -11 0
-13 -3 -38 -34 -32 -31 -1 -21 -17 -15 -14 -11 -7 -5 -4 -60 -51 -45 -47 -41 -39 0
-31 -32 -34 -38 -3 -13 -39 -41 -45 -4 -14 -47 -51 -5 -15 -60 -7 -17 -11 -21 -1 0
-31 -14 -4 -45 -41 -39 -13 -3 -38 -34 -32 -1 -21 -17 -15 -11 -7 -5 -60 -51 -47 0
-39 -41 -45 -4 -14 -31 -47 -51 -5 -15 -32 -60 -7 -17 -34 -11 -21 -38 -1 -3 -13 0
-39 -32 -15 -5 -51 -47 -31 -14 -4 -45 -41 -13 -3 -38 -34 -1 -21 -17 -11 -7 -60 0
-47 -51 -5 -15 -32 -39 -60 -7 -17 -34 -41 -11 -21 -38 -45 -1 -3 -4 -13 -14 -31 0
-47 -41 -34 -17 -7 -60 -39 -32 -15 -5 -51 -31 -14 -4 -45 -13 -3 -38 -1 -21 -11 0
-60 -7 -17 -34 -41 -47 -11 -21 -38 -45 -51 -1 -3 -4 -5 -13 -14 -15 -31 -32 -39 0
-11 -21 -38 -45 -51 -60 -1 -3 -4 -5 -7 -13 -14 -15 -17 -31 -32 -34 -39 -41 -47 0
-60 -51 -45 -38 -21 -11 -47 -41 -34 -17 -7 -39 -32 -15 -5 -31 -14 -4 -13 -3 -1 0
-1 -3 -4 -5 -8 -9 -13 -14 -15 -18 -19 -31 -32 -35 -36 -39 -42 -43 -48 -49 -61 0
-9 -8 -5 -4 -3 -1 -61 -49 -43 -36 -19 -48 -42 -35 -18 -39 -32 -15 -31 -14 -13 0
-1 -19 -18 -15 -14 -13 -9 -8 -5 -4 -3 -61 -49 -43 -36 -48 -42 -35 -39 -32 -31 0
-13 -14 -15 -18 -19 -1 -31 -32 -35 -36 -3 -39 -42 -43 -4 -48 -49 -5 -61 -8 -9 0
-13 -3 -36 -35 -32 -31 -1 -19 -18 -15 -14 -9 -8 -5 -4 -61 -49 -43 -48 -42 -39 0
-31 -32 -35 -36 -3 -13 -39 -42 -43 -4 -14 -48 -49 -5 -15 -61 -8 -18 -9 -19 -1 0
-31 -14 -4 -43 -42 -39 -13 -3 -36 -35 -32 -1 -19 -18 -15 -9 -8 -5 -61 -49 -48 0
-39 -42 -43 -4 -14 -31 -48 -49 -5 -15 -32 -61 -8 -18 -35 -9 -19 -36 -1 -3 -13 0
-39 -32 -15 -5 -49 -48 -31 -14 -4 -43 -42 -13 -3 -36 -35 -1 -19 -18 -9 -8 -61 0
-48 -49 -5 -15 -32 -39 -61 -8 -18 -35 -42 -9 -19 -36 -43 -1 -3 -4 -13 -14 -31 0
-48 -42 -35 -18 -8 -61 -39 -32 -15 -5 -49 -31 -14 -4 -43 -13 -3 -36 -1 -19 -9 0
-61 -8 -18 -35 -42 -48 -9 -19 -36 -43 -49 -1 -3 -4 -5 -13 -14 -15 -31 -32 -39 0
-9 -19 -36 -43 -49 -61 -1 -3 -4 -5 -8 -13 -14 -15 -18 -31 -32 -35 -39 -42 -48 0
-61 -49 -43 -36 -19 -9 -48 -42 -35 -18 -8 -39 -32 -15 -5 -31 -14 -4 -13 -3 -1 0
-1 -3 -4 -5 -8 -10 -13 -14 -15 -18 -20 -31 -32 -35 -37 -39 -42 -44 -48 -50 -62 0
-10 -8 -5 -4 -3 -1 -62 -50 -44 -37 -20 -48 -42 -35 -18 -39 -32 -15 -31 -14 -13 0
-1 -20 -18 -15 -14 -13 -10 -8 -5 -4 -3 -62 -50 -44 -37 -48 -42 -35 -39 -32 -31 0
-13 -14 -15 -18 -20 -1 -31 -32 -35 -37 -3 -39 -42 -44 -4 -48 -50 -5 -62 -8 -10 0
-13 -3 -37 -35 -32 -31 -1 -20 -18 -15 -14 -10 -8 -5 -4 -62 -50 -44 -48 -42 -39 0
-31 -32 -35 -37 -3 -13 -39 -42 -44 -4 -14 -48 -50 -5 -15 -62 -8 -18 -10 -20 -1 0
-31 -14 -4 -44 -42 -39 -13 -3 -37 -35 -32 -1 -20 -18 -15 -10 -8 -5 -62 -50 -48 0
-39 -42 -44 -4 -14 -31 -48 -50 -5 -15 -32 -62 -8 -18 -35 -10 -20 -37 -1 -3 -13 0
-39 -32 -15 -5 -50 -48 -31 -14 -4 -44 -42 -13 -3 -37 -35 -1 -20 -18 -10 -8 -62 0
-48 -50 -5 -15 -32 -39 -62 -8 -18 -35 -42 -10 -20 -37 -44 -1 -3 -4 -13 -14 -31 0
-48 -42 -35 -18 -8 -62 -39 -32 -15 -5 -50 -31 -14 -4 -44 -13 -3 -37 -1 -20 -10 0
-62 -8 -18 -35 -42 -48 -10 -20 -37 -44 -50 -1 -3 -4 -5 -13 -14 -15 -31 -32 -39 0
-10 -20 -37 -44 -50 -62 -1 -3 -4 -5 -8 -13 -14 -15 -18 -31 -32 -35 -39 -42 -48 0
-62 -50 -44 -37 -20 -10 -48 -42 -35 -18 -8 -39 -32 -15 -5 -31 -14 -4 -13 -3 -1 0
-1 -3 -4 -5 -8 -11 -13 -14 -15 -18 -21 -31 -32 -35 -38 -39 -42 -45 -48 -51 -63 0
-11 -8 -5 -4 -3 -1 -63 -51 -45 -38 -21 -48 -42 -35 -18 -39 -32 -15 -31 -14 -13 0
-1 -21 -18 -15 -14 -13 -11 -8 -5 -4 -3 -63 -51 -45 -38 -48 -42 -35 -39 -32 -31 0
-13 -14 -15 -18 -21 -1 -31 -32 -35 -38 -3 -39 -42 -45 -4 -48 -51 -5 -63 -8 -11 0
-13 -3 -38 -35 -32 -31 -1 -21 -18 -15 -14 -11 -8 -5 -4 -63 -51 -45 -48 -42 -39 0
-31 -32 -35 -38 -3 -13 -39 -42 -45 -4 -14 -48 -51 -5 -15 -63 -8 -18 -11 -21 -1 0
-31 -14 -4 -45 -42 -39 -13 -3 -38 -35 -32 -1 -21 -18 -15 -11 -8 -5 -63 -51 -48 0
-39 -42 -45 -4 -14 -31 -48 -51 -5 -15 -32 -63 -8 -18 -35 -11 -21 -38 -1 -3 -13 0
-39 -32 -15 -5 -51 -48 -31 -14 -4 -45 -42 -13 -3 -38 -35 -1 -21 -18 -11 -8 -63 0
-48 -51 -5 -15 -32 -39 -63 -8 -18 -35 -42 -11 -21 -38 -45 -1 -3 -4 -13 -14 -31 0
-48 -42 -35 -18 -8 -63 -39 -32 -15 -5 -51 -31 -14 -4 -45 -13 -3 -38 -1 -21 -11 0
-63 -8 -18 -35 -42 -48 -11 -21 -38 -45 -51 -1 -3 -4 -5 -13 -14 -15 -31 -32 -39 0
-11 -21 -38 -45 -51 -63 -1 -3 -4 -5 -8 -13 -14 -15 -18 -31 -32 -35 -39 -42 -48 0
-63 -51 -45 -38 -21 -11 -48 -42 -35 -18 -8 -39 -32 -15 -5 -31 -14 -4 -13 -3 -1 0
-1 -3 -4 -5 -9 -10 -13 -14 -15 -19 -20 -31 -32 -36 -37 -39 -43 -44 -49 -50 -64 0
-10 -9 -5 -4 -3 -1 -64 -50 -44 -37 -20 -49 -43 -36 -19 -39 -32 -15 -31 -14 -13 0
-1 -20 -19 -15 -14 -13 -10 -9 -5 -4 -3 -64 -50 -44 -37 -49 -43 -36 -39 -32 -31 0
-13 -14 -15 -19 -20 -1 -31 -32 -36 -37 -3 -39 -43 -44 -4 -49 -50 -5 -64 -9 -10 0
-13 -3 -37 -36 -32 -31 -1 -20 -19 -15 -14 -10 -9 -5 -4 -64 -50 -44 -49 -43 -39 0
-31 -32 -36 -37 -3 -13 -39 -43 -44 -4 -14 -49 -50 -5 -15 -64 -9 -19 -10 -20 -1 0
-31 -14 -4 -44 -43 -39 -13 -3 -37 -36 -32 -1 -20 -19 -15 -10 -9 -5 -64 -50 -49 0
-39 -43 -44 -4 -14 -31 -49 -50 -5 -15 -32 -64 -9 -19 -36 -10 -20 -37 -1 -3 -13 0
-39 -32 -15 -5 -50 -49 -31 -14 -4 -44 -43 -13 -3 -37 -36 -1 -20 -19 -10 -9 -64 0
-49 -50 -5 -15 -32 -39 -64 -9 -19 -36 -43 -10 -20 -37 -44 -1 -3 -4 -13 -14 -31 0
-49 -43 -36 -19 -9 -64 -39 -32 -15 -5 -50 -31 -14 -4 -44 -13 -3 -37 -1 -20 -10 0
-64 -9 -19 -36 -43 -49 -10 -20 -37 -44 -50 -1 -3 -4 -5 -13 -14 -15 -31 -32 -39 0
-10 -20 -37 -44 -50 -64 -1 -3 -4 -5 -9 -13 -14 -15 -19 -31 -32 -36 -39 -43 -49 0
-64 -50 -44 -37 -20 -10 -49 -43 -36 -19 -9 -39 -32 -15 -5 -31 -14 -4 -13 -3 -1 0
-1 -3 -4 -5 -9 -11 -13 -14 -15 -19 -21 -31 -32 -36 -38 -39 -43 -45 -49 -51 -65 0
-11 -9 -5 -4 -3 -1 -65 -51 -45 -38 -21 -49 -43 -36 -19 -39 -32 -15 -31 -14 -13 0
-1 -21 -19 -15 -14 -13 -11 -9 -5 -4 -3 -65 -51 -45 -38 -49 -43 -36 -39 -32 -31 0
-13 -14 -15 -19 -21 -1 -31 -32 -36 -38 -3 -39 -43 -45 -4 -49 -51 -5 -65 -9 -11 0
-13 -3 -38 -36 -32 -31 -1 -21 -19 -15 -14 -11 -9 -5 -4 -65 -51 -45 -49 -43 -39 0
-31 -32 -36 -38 -3 -13 -39 -43 -45 -4 -14 -49 -51 -5 -15 -65 -9 -19 -11 -21 -1 0
-31 -14 -4 -45 -43 -39 -13 -3 -38 -36 -32 -1 -21 -19 -15 -11 -9 -5 -65 -51 -49 0
-39 -43 -45 -4 -14 -31 -49 -51 -5 -15 -32 -65 -9 -19 -36 -11 -21 -38 -1 -3 -13 0
-39 -32 -15 -5 -51 -49 -31 -14 -4 -45 -43 -13 -3 -38 -36 -1 -21 -19 -11 -9 -65 0
-49 -51 -5 -15 -32 -39 -65 -9 -19 -36 -43 -11 -21 -38 -45 -1 -3 -4 -13 -14 -31 0
-49 -43 -36 -19 -9 -65 -39 -32 -15 -5 -51 -31 -14 -4 -45 -13 -3 -38 -1 -21 -11 0
-65 -9 -19 -36 -43 -49 -11 -21 -38 -45 -51 -1 -3 -4 -5 -13 -14 -15 -31 -32 -39 0
-11 -21 -38 -45 -51 -65 -1 -3 -4 -5 -9 -13 -14 -15 -19 -31 -32 -36 -39 -43 -49 0
-65 -51 -45 -38 -21 -11 -49 -43 -36 -19 -9 -39 -32 -15 -5 -31 -14 -4 -13 -3 -1 0
-1 -3 -4 -5 -10 -11 -13 -14 -15 -20 -21 -31 -32 -37 -38 -39 -44 -45 -50 -51 -66 0
-11 -10 -5 -4 -3 -1 -66 -51 -45 -38 -21 -50 -44 -37 -20 -39 -32 -15 -31 -14 -13 0
-1 -21 -20 -15 -14 -13 -11 -10 -5 -4 -3 -66 -51 -45 -38 -50 -44 -37 -39 -32 -31 0
-13 -14 -15 -20 -21 -1 -31 -32 -37 -38 -3 -39 -44 -45 -4 -50 -51 -5 -66 -10 -11 0
-13 -3 -38 -37 -32 -31 -1 -21 -20 -15 -14 -11 -10 -5 -4 -66 -51 -45 -50 -44 -39 0
-31 -32 -37 -38 -3 -13 -39 -44 -45 -4 -14 -50 -51 -5 -15 -66 -10 -20 -11 -21 -1 0
-31 -14 -4 -45 -44 -39 -13 -3 -38 -37 -32 -1 -21 -20 -15 -11 -10 -5 -66 -51 -50 0
-39 -44 -45 -4 -14 -31 -50 -51 -5 -15 -32 -66 -10 -20 -37 -11 -21 -38 -1 -3 -13 0
-39 -32 -15 -5 -51 -50 -31 -14 -4 -45 -44 -13 -3 -38 -37 -1 -21 -20 -11 -10 -66 0
-50 -51 -5 -15 -32 -39 -66 -10 -20 -37 -44 -11 -21 -38 -45 -1 -3 -4 -13 -14 -31 0
-50 -44 -37 -20 -10 -66 -39 -32 -15 -5 -51 -31 -14 -4 -45 -13 -3 -38 -1 -21 -11 0
-66 -10 -20 -37 -44 -50 -11 -21 -38 -45 -51 -1 -3 -4 -5 -13 -14 -15 -31 -32 -39 0
-11 -21 -38 -45 -51 -66 -1 -3 -4 -5 -10 -13 -14 -15 -20 -31 -32 -37 -39 -44 -50 0
-66 -51 -45 -38 -21 -11 -50 -44 -37 -20 -10 -39 -32 -15 -5 -31 -14 -4 -13 -3 -1 0
-1 -3 -4 -6 -7 -8 -13 -14 -16 -17 -18 -31 -33 -34 -35 -40 -41 -42 -52 -53 -57 0
-8 -7 -6 -4 -3 -1 -57 -53 -42 -35 -18 -52 -41 -34 -17 -40 -33 -16 -31 -14 -13 0
-1 -18 -17 -16 -14 -13 -8 -7 -6 -4 -3 -57 -53 -42 -35 -52 -41 -34 -40 -33 -31 0
-13 -14 -16 -17 -18 -1 -31 -33 -34 -35 -3 -40 -41 -42 -4 -52 -53 -6 -57 -7 -8 0
-13 -3 -35 -34 -33 -31 -1 -18 -17 -16 -14 -8 -7 -6 -4 -57 -53 -42 -52 -41 -40 0
-31 -33 -34 -35 -3 -13 -40 -41 -42 -4 -14 -52 -53 -6 -16 -57 -7 -17 -8 -18 -1 0
-31 -14 -4 -42 -41 -40 -13 -3 -35 -34 -33 -1 -18 -17 -16 -8 -7 -6 -57 -53 -52 0
-40 -41 -42 -4 -14 -31 -52 -53 -6 -16 -33 -57 -7 -17 -34 -8 -18 -35 -1 -3 -13 0
-40 -33 -16 -6 -53 -52 -31 -14 -4 -42 -41 -13 -3 -35 -34 -1 -18 -17 -8 -7 -57 0
-52 -53 -6 -16 -33 -40 -57 -7 -17 -34 -41 -8 -18 -35 -42 -1 -3 -4 -13 -14 -31 0
-52 -41 -34 -17 -7 -57 -40 -33 -16 -6 -53 -31 -14 -4 -42 -13 -3 -35 -1 -18 -8 0
-57 -7 -17 -34 -41 -52 -8 -18 -35 -42 -53 -1 -3 -4 -6 -13 -14 -16 -31 -33 -40 0
-8 -18 -35 -42 -53 -57 -1 -3 -4 -6 -7 -13 -14 -16 -17 -31 -33 -34 -40 -41 -52 0
-57 -53 -42 -35 -18 -8 -52 -41 -34 -17 -7 -40 -33 -16 -6 -31 -14 -4 -13 -3 -1 0
-1 -3 -4 -6 -7 -9 -13 -14 -16 -17 -19 -31 -33 -34 -36 -40 -41 -43 -52 -54 -58 0
-9 -7 -6 -4 -3 -1 -58 -54 -43 -36 -19 -52 -41 -34 -17 -40 -33 -16 -31 -14 -13 0
-1 -19 -17 -16 -14 -13 -9 -7 -6 -4 -3 -58 -54 -43 -36 -52 -41 -34 -40 -33 -31 0
-13 -14 -16 -17 -19 -1 -31 -33 -34 -36 -3 -40 -41 -43 -4 -52 -54 -6 -58 -7 -9 0
-13 -3 -36 -34 -33 -31 -1 -19 -17 -16 -14 -9 -7 -6 -4 -58 -54 -43 -52 -41 -40 0
-31 -33 -34 -36 -3 -13 -40 -41 -43 -4 -14 -52 -54 -6 -16 -58 -7 -17 -9 -19 -1 0
-31 -14 -4 -43 -41 -40 -13 -3 -36 -34 -33 -1 -19 -17 -16 -9 -7 -6 -58 -54 -52 0
-40 -41 -43 -4 -14 -31 -52 -54 -6 -16 -33 -58 -7 -17 -34 -9 -19 -36 -1 -3 -13 0
-40 -33 -16 -6 -54 -52 -31 -14 -4 -43 -41 -13 -3 -36 -34 -1 -19 -17 -9 -7 -58 0
-52 -54 -6 -16 -33 -40 -58 -7 -17 -34 -41 -9 -19 -36 -43 -1 -3 -4 -13 -14 -31 0
-52 -41 -34 -17 -7 -58 -40 -33 -16 -6 -54 -31 -14 -4 -43 -13 -3 -36 -1 -19 -9 0
-58 -7 -17 -34 -41 -52 -9 -19 -36 -43 -54 -1 -3 -4 -6 -13 -14 -16 -31 -33 -40 0
-9 -19 -36 -43 -54 -58 -1 -3 -4 -6 -7 -13 -14 -16 -17 -31 -33 -34 -40 -41 -52 0
-58 -54 -43 -36 -19 -9 -52 -41 -34 -17 -7 -40 -33 -16 -6 -31 -14 -4 -13 -3 -1 0
-1 -3 -4 -6 -7 -10 -13 -14 -16 -17 -20 -31 -33 -34 -37 -40 -41 -44 -52 -55 -59 0
-10 -7 -6 -4 -3 -1 -59 -55 -44 -37 -20 -52 -41 -34 -17 -40 -33 -16 -31 -14 -13 0
-1 -20 -17 -16 -14 -13 -10 -7 -6 -4 -3 -59 -55 -44 -37 -52 -41 -34 -40 -33 -31 0
-13 -14 -16 -17 -20 -1 -31 -33 -34 -37 -3 -40 -41 -44 -4 -52 -55 -6 -59 -7 -10 0
-13 -3 -37 -34 -33 -31 -1 -20 -17 -16 -14 -10 -7 -6 -4 -59 -55 -44 -52 -41 -40 0
-31 -33 -34 -37 -3 -13 -40 -41 -44 -4 -14 -52 -55 -6 -16 -59 -7 -17 -10 -20 -1 0
-31 -14 -4 -44 -41 -40 -13 -3 -37 -34 -33 -1 -20 -17 -16 -10 -7 -6 -59 -55 -52 0
-40 -41 -44 -4 -14 -31 -52 -55 -6 -16 -33 -59 -7 -17 -34 -10 -20 -37 -1 -3 -13 0
-40 -33 -16 -6 -55 -52 -31 -14 -4 -44 -41 -13 -3 -37 -34 -1 -20 -17 -10 -7 -59 0
-52 -55 -6 -16 -33 -40 -59 -7 -17 -34 -41 -10 -20 -37 -44 -1 -3 -4 -13 -14 -31 0
-52 -41 -34 -17 -7 -59 -40 -33 -16 -6 -55 -31 -14 -4 -44 -13 -3 -37 -1 -20 -10 0
-59 -7 -17 -34 -41 -52 -10 -20 -37 -44 -55 -1 -3 -4 -6 -13 -14 -16 -31 -33 -40 0
-10 -20 -37 -44 -55 -59 -1 -3 -4 -6 -7 -13 -14 -16 -17 -31 -33 -34 -40 -41 -52 0
-59 -55 -44 -37 -20 -10 -52 -41 -34 -17 -7 -40 -33 -16 -6 -31 -14 -4 -13 -3 -1 0
-1 -3 -4 -6 -7 -11 -13 -14 -16 -17 -21 -31 -33 -34 -38 -40 -41 -45 -52 -56 -60 0
-11 -7 -6 -4 -3 -1 -60 -56 -45 -38 -21 -52 -41 -34 -17 -40 -33 -16 -31 -14 -13 0
-1 -21 -17 -16 -14 -13 -11 -7 -6 -4 -3 -60 -56 -45 -38 -52 -41 -34 -40 -33 -31 0
-13 -14 -16 -17 -21 -1 -31 -33 -34 -38 -3 -40 -41 -45 -4 -52 -56 -6 -60 -7 -11 0
-13 -3 -38 -34 -33 -31 -1 -21 -17 -16 -14 -11 -7 -6 -4 -60 -56 -45 -52 -41 -40 0
-31 -33 -34 -38 -3 -13 -40 -41 -45 -4 -14 -52 -56 -6 -16 -60 -7 -17 -11 -21 -1 0
-31 -14 -4 -45 -41 -40 -13 -3 -38 -34 -33 -1 -21 -17 -16 -11 -7 -6 -60 -56 -52 0
-40 -41 -45 -4 -14 -31 -52 -56 -6 -16 -33 -60 -7 -17 -34 -11 -21 -38 -1 -3 -13 0
-40 -33 -16 -6 -56 -52 -31 -14 -4 -45 -41 -13 -3 -38 -34 -1 -21 -17 -11 -7 -60 0
-52 -56 -6 -16 -33 -40 -60 -7 -17 -34 -41 -11 -21 -38 -45 -1 -3 -4 -13 -14 -31 0
-52 -41 -34 -17 -7 -60 -40 -33 -16 -6 -56 -31 -14 -4 -45 -13 -3 -38 -1 -21 -11 0
-60 -7 -17 -34 -41 -52 -11 -21 -38 -45 -56 -1 -3 -4 -6 -13 -14 -16 -31 -33 -40 0
-11 -21 -38 -45 -56 -60 -1 -3 -4 -6 -7 -13 -14 -16 -17 -31 -33 -34 -40 -41 -52 0
-60 -56 -45 -38 -21 -11 -52 -41 -34 -17 -7 -40 -33 -16 -6 -31 -14 -4 -13 -3 -1 0
-1 -3 -4 -6 -8 -9 -13 -14 -16 -18 -19 -31 -33 -35 -36 -40 -42 -43 -53 -54 -61 0
-9 -8 -6 -4 -3 -1 -61 -54 -43 -36 -19 -53 -42 -35 -18 -40 -33 -16 -31 -14 -13 0
-1 -19 -18 -16 -14 -13 -9 -8 -6 -4 -3 -61 -54 -43 -36 -53 -42 -35 -40 -33 -31 0
-13 -14 -16 -18 -19 -1 -31 -33 -35 -36 -3 -40 -42 -43 -4 -53 -54 -6 -61 -8 -9 0
-13 -3 -36 -35 -33 -31 -1 -19 -18 -16 -14 -9 -8 -6 -4 -61 -54 -43 -53 -42 -40 0
-31 -33 -35 -36 -3 -13 -40 -42 -43 -4 -14 -53 -54 -6 -16 -61 -8 -18 -9 -19 -1 0
-31 -14 -4 -43 -42 -40 -13 -3 -36 -35 -33 -1 -19 -18 -16 -9 -8 -6 -61 -54 -53 0
-40 -42 -43 -4 -14 -31 -53 -54 -6 -16 -33 -61 -8 -18 -35 -9 -19 -36 -1 -3 -13 0
-40 -33 -16 -6 -54 -53 -31 -14 -4 -43 -42 -13 -3 -36 -35 -1 -19 -18 -9 -8 -61 0
-53 -54 -6 -16 -33 -40 -61 -8 -18 -35 -42 -9 -19 -36 -43 -1 -3 -4 -13 -14 -31 0
-53 -42 -35 -18 -8 -61 -40 -33 -16 -6 -54 -31 -14 -4 -43 -13 -3 -36 -1 -19 -9 0
-61 -8 -18 -35 -42 -53 -9 -19 -36 -43 -54 -1 -3 -4 -6 -13 -14 -16 -31 -33 -40 0
-9 -19 -36 -43 -54 -61 -1 -3 -4 -6 -8 -13 -14 -16 -18 -31 -33 -35 -40 -42 -53 0
-61 -54 -43 -36 -19 -9 -53 -42 -35 -18 -8 -40 -33 -16 -6 -31 -14 -4 -13 -3 -1 0
-1 -3 -4 -6 -8 -10 -13 -14 -16 -18 -20 -31 -33 -35 -37 -40 -42 -44 -53 -55 -62 0
-10 -8 -6 -4 -3 -1 -62 -55 -44 -37 -20 -53 -42 -35 -18 -40 -33 -16 -31 -14 -13 0
-1 -20 -18 -16 -14 -13 -10 -8 -6 -4 -3 -62 -55 -44 -37 -53 -42 -35 -40 -33 -31 0
-13 -14 -16 -18 -20 -1 -31 -33 -35 -37 -3 -40 -42 -44 -4 -53 -55 -6 -62 -8 -10 0
-13 -3 -37 -35 -33 -31 -1 -20 -18 -16 -14 -10 -8 -6 -4 -62 -55 -44 -53 -42 -40 0
-31 -33 -35 -37 -3 -13 -40 -42 -44 -4 -14 -53 -55 -6 -16 -62 -8 -18 -10 -20 -1 0
-31 -14 -4 -44 -42 -40 -13 -3 -37 -35 -33 -1 -20 -18 -16 -10 -8 -6 -62 -55 -53 0
-40 -42 -44 -4 -14 -31 -53 -55 -6 -16 -33 -62 -8 -18 -35 -10 -20 -37 -1 -3 -13 0
-40 -33 -16 -6 -55 -53 -31 -14 -4 -44 -42 -13 -3 -37 -35 -1 -20 -18 -10 -8 -62 0
-53 -55 -6 -16 -33 -40 -62 -8 -18 -35 -42 -10 -20 -37 -44 -1 -3 -4 -13 -14 -31 0
-53 -42 -35 -18 -8 -62 -40 -33 -16 -6 -55 -31 -14 -4 -44 -13 -3 -37 -1 -20 -10 0
-62 -8 -18 -35 -42 -53 -10 -20 -37 -44 -55 -1 -3 -4 -6 -13 -14 -16 -31 -33 -40 0
-10 -20 -37 -44 -55 -62 -1 -3 -4 -6 -8 -13 -14 -16 -18 -31 -33 -35 -40 -42 -53 0
-62 -55 -44 -37 -20 -10 -53 -42 -35 -18 -8 -40 -33 -16 -6 -31 -14 -4 -13 -3 -1 0
-1 -3 -4 -6 -8 -11 -13 -14 -16 -18 -21 -31 -33 -35 -38 -40 -42 -45 -53 -56 -63 0
-11 -8 -6 -4 -3 -1 -63 -56 -45 -38 -21 -53 -42 -35 -18 -40 -33 -16 -31 -14 -13 0
-1 -21 -18 -16 -14 -13 -11 -8 -6 -4 -3 -63 -56 -45 -38 -53 -42 -35 -40 -33 -31 0
-13 -14 -16 -18 -21 -1 -31 -33 -35 -38 -3 -40 -42 -45 -4 -53 -56 -6 -63 -8 -11 0
-13 -3 -38 -35 -33 -31 -1 -21 -18 -16 -14 -11 -8 -6 -4 -63 -56 -45 -53 -42 -40 0
-31 -33 -35 -38 -3 -13 -40 -42 -45 -4 -14 -53 -56 -6 -16 -63 -8 -18 -11 -21 -1 0
-31 -14 -4 -45 -42 -40 -13 -3 -38 -35 -33 -1 -21 -18 -16 -11 -8 -6 -63 -56 -53 0
-40 -42 -45 -4 -14 -31 -53 -56 -6 -16 -33 -63 -8 -18 -35 -11 -21 -38 -1 -3 -13 0
-40 -33 -16 -6 -56 -53 -31 -14 -4 -45 -42 -13 -3 -38 -35 -1 -21 -18 -11 -8 -63 0
-53 -56 -6 -16 -33 -40 -63 -8 -18 -35 -42 -11 -21 -38 -45 -1 -3 -4 -13 -14 -31 0
-53 -42 -35 -18 -8 -63 -40 -33 -16 -6 -56 -31 -14 -4 -45 -13 -3 -38 -1 -21 -11 0
-63 -8 -18 -35 -42 -53 -11 -21 -38 -45 -56 -1 -3 -4 -6 -13 -14 -16 -31 -33 -40 0
-11 -21 -38 -45 -56 -63 -1 -3 -4 -6 -8 -13 -14 -16 -18 -31 -33 -35 -40 -42 -53 0
-63 -56 -45 -38 -21 -11 -53 -42 -35 -18 -8 -40 -33 -16 -6 -31 -14 -4 -13 -3 -1 0
-1 -3 -4 -6 -9 -10 -13 -14 -16 -19 -20 -31 -33 -36 -37 -40 -43 -44 -54 -55 -64 0
-10 -9 -6 -4 -3 -1 -64 -55 -44 -37 -20 -54 -43 -36 -19 -40 -33 -16 -31 -14 -13 0
-1 -20 -19 -16 -14 -13 -10 -9 -6 -4 -3 -64 -55 -44 -37 -54 -43 -36 -40 -33 -31 0
-13 -14 -16 -19 -20 -1 -31 -33 -36 -37 -3 -40 -43 -44 -4 -54 -55 -6 -64 -9 -10 0
-13 -3 -37 -36 -33 -31 -1 -20 -19 -16 -14 -10 -9 -6 -4 -64 -55 -44 -54 -43 -40 0
-31 -33 -36 -37 -3 -13 -40 -43 -44 -4 -14 -54 -55 -6 -16 -64 -9 -19 -10 -20 -1 0
-31 -14 -4 -44 -43 -40 -13 -3 -37 -36 -33 -1 -20 -19 -16 -10 -9 -6 -64 -55 -54 0
-40 -43 -44 -4 -14 -31 -54 -55 -6 -16 -33 -64 -9 -19 -36 -10 -20 -37 -1 -3 -13 0
-40 -33 -16 -6 -55 -54 -31 -14 -4 -44 -43 -13 -3 -37 -36 -1 -20 -19 -10 -9 -64 0
-54 -55 -6 -16 -33 -40 -64 -9 -19 -36 -43 -10 -20 -37 -44 -1 -3 -4 -13 -14 -31 0
-54 -43 -36 -19 -9 -64 -40 -33 -16 -6 -55 -31 -14 -4 -44 -13 -3 -37 -1 -20 -10 0
-64 -9 -19 -36 -43 -54 -10 -20 -37 -44 -55 -1 -3 -4 -6 -13 -14 -16 -31 -33 -40 0
-10 -20 -37 -44 -55 -64 -1 -3 -4 -6 -9 -13 -14 -16 -19 -31 -33 -36 -40 -43 -54 0
-64 -55 -44 -37 -20 -10 -54 -43 -36 -19 -9 -40 -33 -16 -6 -31 -14 -4 -13 -3 -1 0
-1 -3 -4 -6 -9 -11 -13 -14 -16 -19 -21 -31 -33 -36 -38 -40 -43 -45 -54 -56 -65 0
-11 -9 -6 -4 -3 -1 -65 -56 -45 -38 -21 -54 -43 -36 -19 -40 -33 -16 -31 -14 -13 0
-1 -21 -19 -16 -14 -13 -11 -9 -6 -4 -3 -65 -56 -45 -38 -54 -43 -36 -40 -33 -31 0
-13 -14 -16 -19 -21 -1 -31 -33 -36 -38 -3 -40 -43 -45 -4 -54 -56 -6 -65 -9 -11 0
-13 -3 -38 -36 -33 -31 -1 -21 -19 -16 -14 -11 -9 -6 -4 -65 -56 -45 -54 -43 -40 0
-31 -33 -36 -38 -3 -13 -40 -43 -45 -4 -14 -54 -56 -6 -16 -65 -9 -19 -11 -21 -1 0
-31 -14 -4 -45 -43 -40 -13 -3 -38 -36 -33 -1 -21 -19 -16 -11 -9 -6 -65 -56 -54 0
-40 -43 -45 -4 -14 -31 -54 -56 -6 -16 -33 -65 -9 -19 -36 -11 -21 -38 -1 -3 -13 0
-40 -33 -16 -6 -56 -54 -31 -14 -4 -45 -43 -13 -3 -38 -36 -1 -21 -19 -11 -9 -65 0
-54 -56 -6 -16 -33 -40 -65 -9 -19 -36 -43 -11 -21 -38 -45 -1 -3 -4 -13 -14 -31 0
-54 -43 -36 -19 -9 -65 -40 -33 -16 -6 -56 -31 -14 -4 -45 -13 -3 -38 -1 -21 -11 0
-65 -9 -19 -36 -43 -54 -11 -21 -38 -45 -56 -1 -3 -4 -6 -13 -14 -16 -31 -33 -40 0
-11 -21 -38 -45 -56 -65 -1 -3 -4 -6 -9 -13 -14 -16 -19 -31 -33 -36 -40 -43 -54 0
-65 -56 -45 -38 -21 -11 -54 -43 -36 -19 -9 -40 -33 -16 -6 -31 -14 -4 -13 -3 -1 0
-1 -3 -4 -6 -10 -11 -13 -14 -16 -20 -21 -31 -33 -37 -38 -40 -44 -45 -55 -56 -66 0
-11 -10 -6 -4 -3 -1 -66 -56 -45 -38 -21 -55 -44 -37 -20 -40 -33 -16 -31 -14 -13 0
-1 -21 -20 -16 -14 -13 -11 -10 -6 -4 -3 -66 -56 -45 -38 -55 -44 -37 -40 -33 -31 0
-13 -14 -16 -20 -21 -1 -31 -33 -37 -38 -3 -40 -44 -45 -4 -55 -56 -6 -66 -10 -11 0
-13 -3 -38 -37 -33 -31 -1 -21 -20 -16 -14 -11 -10 -6 -4 -66 -56 -45 -55 -44 -40 0
-31 -33 -37 -38 -3 -13 -40 -44 -45 -4 -14 -55 -56 -6 -16 -66 -10 -20 -11 -21 -1 0
-31 -14 -4 -45 -44 -40 -13 -3 -38 -37 -33 -1 -21 -20 -16 -11 -10 -6 -66 -56 -55 0
-40 -44 -45 -4 -14 -31 -55 -56 -6 -16 -33 -66 -10 -20 -37 -11 -21 -38 -1 -3 -13 0
-40 -33 -16 -6 -56 -55 -31 -14 -4 -45 -44 -13 -3 -38 -37 -1 -21 -20 -11 -10 -66 0
-55 -56 -6 -16 -33 -40 -66 -10 -20 -37 -44 -11 -21 -38 -45 -1 -3 -4 -13 -14 -31 0
-55 -44 -37 -20 -10 -66 -40 -33 -16 -6 -56 -31 -14 -4 -45 -13 -3 -38 -1 -21 -11 0
-66 -10 -20 -37 -44 -55 -11 -21 -38 -45 -56 -1 -3 -4 -6 -13 -14 -16 -31 -33 -40 0
-11 -21 -38 -45 -56 -66 -1 -3 -4 -6 -10 -13 -14 -16 -20 -31 -33 -37 -40 -44 -55 0
-66 -56 -45 -38 -21 -11 -55 -44 -37 -20 -10 -40 -33 -16 -6 -31 -14 -4 -13 -3 -1 0
-1 -3 -4 -7 -8 -9 -13 -14 -17 -18 -19 -31 -34 -35 -36 -41 -42 -43 -57 -58 -61 0
-9 -8 -7 -4 -3 -1 -61 -58 -43 -36 -19 -57 -42 -35 -18 -41 -34 -17 -31 -14 -13 0
-1 -19 -18 -17 -14 -13 -9 -8 -7 -4 -3 -61 -58 -43 -36 -57 -42 -35 -41 -34 -31 0
-13 -14 -17 -18 -19 -1 -31 -34 -35 -36 -3 -41 -42 -43 -4 -57 -58 -7 -61 -8 -9 0
-13 -3 -36 -35 -34 -31 -1 -19 -18 -17 -14 -9 -8 -7 -4 -61 -58 -43 -57 -42 -41 0
-31 -34 -35 -36 -3 -13 -41 -42 -43 -4 -14 -57 -58 -7 -17 -61 -8 -18 -9 -19 -1 0
-31 -14 -4 -43 -42 -41 -13 -3 -36 -35 -34 -1 -19 -18 -17 -9 -8 -7 -61 -58 -57 0
-41 -42 -43 -4 -14 -31 -57 -58 -7 -17 -34 -61 -8 -18 -35 -9 -19 -36 -1 -3 -13 0
-41 -34 -17 -7 -58 -57 -31 -14 -4 -43 -42 -13 -3 -36 -35 -1 -19 -18 -9 -8 -61 0
-57 -58 -7 -17 -34 -41 -61 -8 -18 -35 -42 -9 -19 -36 -43 -1 -3 -4 -13 -14 -31 0
-57 -42 -35 -18 -8 -61 -41 -34 -17 -7 -58 -31 -14 -4 -43 -13 -3 -36 -1 -19 -9 0
-61 -8 -18 -35 -42 -57 -9 -19 -36 -43 -58 -1 -3 -4 -7 -13 -14 -17 -31 -34 -41 0
-9 -19 -36 -43 -58 -61 -1 -3 -4 -7 -8 -13 -14 -17 -18 -31 -34 -35 -41 -42 -57 0
-61 -58 -43 -36 -19 -9 -57 -42 -35 -18 -8 -41 -34 -17 -7 -31 -14 -4 -13 -3 -1 0
-1 -3 -4 -7 -8 -10 -13 -14 -17 -18 -20 -31 -34 -35 -37 -41 -42 -44 -57 -59 -62 0
-10 -8 -7 -4 -3 -1 -62 -59 -44 -37 -20 -57 -42 -35 -18 -41 -34 -17 -31 -14 -13 0
-1 -20 -18 -17 -14 -13 -10 -8 -7 -4 -3 -62 -59 -44 -37 -57 -42 -35 -41 -34 -31 0
-13 -14 -17 -18 -20 -1 -31 -34 -35 -37 -3 -41 -42 -44 -4 -57 -59 -7 -62 -8 -10 0
-13 -3 -37 -35 -34 -31 -1 -20 -18 -17 -14 -10 -8 -7 -4 -62 -59 -44 -57 -42 -41 0
-31 -34 -35 -37 -3 -13 -41 -42 -44 -4 -14 -57 -59 -7 -17 -62 -8 -18 -10 -20 -1 0
-31 -14 -4 -44 -42 -41 -13 -3 -37 -35 -34 -1 -20 -18 -17 -10 -8 -7 -62 -59 -57 0
-41 -42 -44 -4 -14 -31 -57 -59 -7 -17 -34 -62 -8 -18 -35 -10 -20 -37 -1 -3 -13 0
-41 -34 -17 -7 -59 -57 -31 -14 -4 -44 -42 -13 -3 -37 -35 -1 -20 -18 -10 -8 -62 0
-57 -59 -7 -17 -34 -41 -62 -8 -18 -35 -42 -10 -20 -37 -44 -1 -3 -4 -13 -14 -31 0
-57 -42 -35 -18 -8 -62 -41 -34 -17 -7 -59 -31 -14 -4 -44 -13 -3 -37 -1 -20 -10 0
-62 -8 -18 -35 -42 -57 -10 -20 -37 -44 -59 -1 -3 -4 -7 -13 -14 -17 -31 -34 -41 0
-10 -20 -37 -44 -59 -62 -1 -3 -4 -7 -8 -13 -14 -17 -18 -31 -34 -35 -41 -42 -57 0
-62 -59 -44 -37 -20 -10 -57 -42 -35 -18 -8 -41 -34 -17 -7 -31 -14 -4 -13 -3 -1 0
-1 -3 -4 -7 -8 -11 -13 -14 -17 -18 -21 -31 -34 -35 -38 -41 -42 -45 -57 -60 -63 0
-11 -8 -7 -4 -3 -1 -63 -60 -45 -38 -21 -57 -42 -35 -18 -41 -34 -17 -31 -14 -13 0
-1 -21 -18 -17 -14 -13 -11 -8 -7 -4 -3 -63 -60 -45 -38 -57 -42 -35 -41 -34 -31 0
-13 -14 -17 -18 -21 -1 -31 -34 -35 -38 -3 -41 -42 -45 -4 -57 -60 -7 -63 -8 -11 0
-13 -3 -38 -35 -34 -31 -1 -21 -18 -17 -14 -11 -8 -7 -4 -63 -60 -45 -57 -42 -41 0
-31 -34 -35 -38 -3 -13 -41 -42 -45 -4 -14 -57 -60 -7 -17 -63 -8 -18 -11 -21 -1 0
-31 -14 -4 -45 -42 -41 -13 -3 -38 -35 -34 -1 -21 -18 -17 -11 -8 -7 -63 -60 -57 0
-41 -42 -45 -4 -14 -31 -57 -60 -7 -17 -34 -63 -8 -18 -35 -11 -21 -38 -1 -3 -13 0
-41 -34 -17 -7 -60 -57 -31 -14 -4 -45 -42 -13 -3 -38 -35 -1 -21 -18 -11 -8 -63 0
-57 -60 -7 -17 -34 -41 -63 -8 -18 -35 -42 -11 -21 -38 -45 -1 -3 -4 -13 -14 -31 0
-57 -42 -35 -18 -8 -63 -41 -34 -17 -7 -60 -31 -14 -4 -45 -13 -3 -38 -1 -21 -11 0
-63 -8 -18 -35 -42 -57 -11 -21 -38 -45 -60 -1 -3 -4 -7 -13 -14 -17 -31 -34 -41 0
-11 -21 -38 -45 -60 -63 -1 -3 -4 -7 -8 -13 -14 -17 -18 -31 -34 -35 -41 -42 -57 0
-63 -60 -45 -38 -21 -11 -57 -42 -35 -18 -8 -41 -34 -17 -7 -31 -14 -4 -13 -3 -1 0
-1 -3 -4 -7 -9 -10 -13 -14 -17 -19 -20 -31 -34 -36 -37 -41 -43 -44 -58 -59 -64 0
-10 -9 -7 -4 -3 -1 -64 -59 -44 -37 -20 -58 -43 -36 -19 -41 -34 -17 -31 -14 -13 0
-1 -20 -19 -17 -14 -13 -10 -9 -7 -4 -3 -64 -59 -44 -37 -58 -43 -36 -41 -34 -31 0
-13 -14 -17 -19 -20 -1 -31 -34 -36 -37 -3 -41 -43 -44 -4 -58 -59 -7 -64 -9 -10 0
-13 -3 -37 -36 -34 -31 -1 -20 -19 -17 -14 -10 -9 -7 -4 -64 -59 -44 -58 -43 -41 0
-31 -34 -36 -37 -3 -13 -41 -43 -44 -4 -14 -58 -59 -7 -17 -64 -9 -19 -10 -20 -1 0
-31 -14 -4 -44 -43 -41 -13 -3 -37 -36 -34 -1 -20 -19 -17 -10 -9 -7 -64 -59 -58 0
-41 -43 -44 -4 -14 -31 -58 -59 -7 -17 -34 -64 -9 -19 -36 -10 -20 -37 -1 -3 -13 0
-41 -34 -17 -7 -59 -58 -31 -14 -4 -44 -43 -13 -3 -37 -36 -1 -20 -19 -10 -9 -64 0
-58 -59 -7 -17 -34 -41 -64 -9 -19 -36 -43 -10 -20 -37 -44 -1 -3 -4 -13 -14 -31 0
-58 -43 -36 -19 -9 -64 -41 -34 -17 -7 -59 -31 -14 -4 -44 -13 -3 -37 -1 -20 -10 0
-64 -9 -19 -36 -43 -58 -10 -20 -37 -44 -59 -1 -3 -4 -7 -13 -14 -17 -31 -34 -41 0
-10 -20 -37 -44 -59 -64 -1 -3 -4 -7 -9 -13 -14 -17 -19 -31 -34 -36 -41 -43 -58 0
-64 -59 -44 -37 -20 -10 -58 -43 -36 -19 -9 -41 -34 -17 -7 -31 -14 -4 -13 -3 -1 0
-1 -3 -4 -7 -9 -11 -13 -14 -17 -19 -21 -31 -34 -36 -38 -41 -43 -45 -58 -60 -65 0
-11 -9 -7 -4 -3 -1 -65 -60 -45 -38 -21 -58 -43 -36 -19 -41 -34 -17 -31 -14 -13 0
-1 -21 -19 -17 -14 -13 -11 -9 -7 -4 -3 -65 -60 -45 -38 -58 -43 -36 -41 -34 -31 0
-13 -14 -17 -19 -21 -1 -31 -34 -36 -38 -3 -41 -43 -45 -4 -58 -60 -7 -65 -9 -11 0
-13 -3 -38 -36 -34 -31 -1 -21 -19 -17 -14 -11 -9 -7 -4 -65 -60 -45 -58 -43 -41 0
-31 -34 -36 -38 -3 -13 -41 -43 -45 -4 -14 -58 -60 -7 -17 -65 -9 -19 -11 -21 -1 0
-31 -14 -4 -45 -43 -41 -13 -3 -38 -36 -34 -1 -21 -19 -17 -11 -9 -7 -65 -60 -58 0
-41 -43 -45 -4 -14 -31 -58 -60 -7 -17 -34 -65 -9 -19 -36 -11 -21 -38 -1 -3 -13 0
-41 -34 -17 -7 -60 -58 -31 -14 -4 -45 -43 -13 -3 -38 -36 -1 -21 -19 -11 -9 -65 0
-58 -60 -7 -17 -34 -41 -65 -9 -19 -36 -43 -11 -21 -38 -45 -1 -3 -4 -13 -14 -31 0
-58 -43 -36 -19 -9 -65 -41 -34 -17 -7 -60 -31 -14 -4 -45 -13 -3 -38 -1 -21 -11 0
-65 -9 -19 -36 -43 -58 -11 -21 -38 -45 -60 -1 -3 -4 -7 -13 -14 -17 -31 -34 -41 0
-11 -21 -38 -45 -60 -65 -1 -3 -4 -7 -9 -13 -14 -17 -19 -31 -34 -36 -41 -43 -58 0
-65 -60 -45 -38 -21 -11 -58 -43 -36 -19 -9 -41 -34 -17 -7 -31 -14 -4 -13 -3 -1 0
-1 -3 -4 -7 -10 -11 -13 -14 -17 -20 -21 -31 -34 -37 -38 -41 -44 -45 -59 -60 -66 0
-11 -10 -7 -4 -3 -1 -66 -60 -45 -38 -21 -59 -44 -37 -20 -41 -34 -17 -31 -14 -13 0
-1 -21 -20 -17 -14 -13 -11 -10 -7 -4 -3 -66 -60 -45 -38 -59 -44 -37 -41 -34 -31 0
-13 -14 -17 -20 -21 -1 -31 -34 -37 -38 -3 -41 -44 -45 -4 -59 -60 -7 -66 -10 -11 0
-13 -3 -38 -37 -34 -31 -1 -21 -20 -17 -14 -11 -10 -7 -4 -66 -60 -45 -59 -44 -41 0
-31 -34 -37 -38 -3 -13 -41 -44 -45 -4 -14 -59 -60 -7 -17 -66 -10 -20 -11 -21 -1 0
-31 -14 -4 -45 -44 -41 -13 -3 -38 -37 -34 -1 -21 -20 -17 -11 -10 -7 -66 -60 -59 0
-41 -44 -45 -4 -14 -31 -59 -60 -7 -17 -34 -66 -10 -20 -37 -11 -21 -38 -1 -3 -13 0
-41 -34 -17 -7 -60 -59 -31 -14 -4 -45 -44 -13 -3 -38 -37 -1 -21 -20 -11 -10 -66 0
-59 -60 -7 -17 -34 -41 -66 -10 -20 -37 -44 -11 -21 -38 -45 -1 -3 -4 -13 -14 -31 0
-59 -44 -37 -20 -10 -66 -41 -34 -17 -7 -60 -31 -14 -4 -45 -13 -3 -38 -1 -21 -11 0
-66 -10 -20 -37 -44 -59 -11 -21 -38 -45 -60 -1 -3 -4 -7 -13 -14 -17 -31 -34 -41 0
-11 -21 -38 -45 -60 -66 -1 -3 -4 -7 -10 -13 -14 -17 -20 -31 -34 -37 -41 -44 -59 0
-66 -60 -45 -38 -21 -11 -59 -44 -37 -20 -10 -41 -34 -17 -7 -31 -14 -4 -13 -3 -1 0
-1 -3 -4 -8 -9 -10 -13 -14 -18 -19 -20 -31 -35 -36 -37 -42 -43 -44 -61 -62 -64 0
-10 -9 -8 -4 -3 -1 -64 -62 -44 -37 -20 -61 -43 -36 -19 -42 -35 -18 -31 -14 -13 0
-1 -20 -19 -18 -14 -13 -10 -9 -8 -4 -3 -64 -62 -44 -37 -61 -43 -36 -42 -35 -31 0
-13 -14 -18 -19 -20 -1 -31 -35 -36 -37 -3 -42 -43 -44 -4 -61 -62 -8 -64 -9 -10 0
-13 -3 -37 -36 -35 -31 -1 -20 -19 -18 -14 -10 -9 -8 -4 -64 -62 -44 -61 -43 -42 0
-31 -35 -36 -37 -3 -13 -42 -43 -44 -4 -14 -61 -62 -8 -18 -64 -9 -19 -10 -20 -1 0
-31 -14 -4 -44 -43 -42 -13 -3 -37 -36 -35 -1 -20 -19 -18 -10 -9 -8 -64 -62 -61 0
-42 -43 -44 -4 -14 -31 -61 -62 -8 -18 -35 -64 -9 -19 -36 -10 -20 -37 -1 -3 -13 0
-42 -35 -18 -8 -62 -61 -31 -14 -4 -44 -43 -13 -3 -37 -36 -1 -20 -19 -10 -9 -64 0
-61 -62 -8 -18 -35 -42 -64 -9 -19 -36 -43 -10 -20 -37 -44 -1 -3 -4 -13 -14 -31 0
-61 -43 -36 -19 -9 -64 -42 -35 -18 -8 -62 -31 -14 -4 -44 -13 -3 -37 -1 -20 -10 0
-64 -9 -19 -36 -43 -61 -10 -20 -37 -44 -62 -1 -3 -4 -8 -13 -14 -18 -31 -35 -42 0
-10 -20 -37 -44 -62 -64 -1 -3 -4 -8 -9 -13 -14 -18 -19 -31 -35 -36 -42 -43 -61 0
-64 -62 -44 -37 -20 -10 -61 -43 -36 -19 -9 -42 -35 -18 -8 -31 -14 -4 -13 -3 -1 0
-1 -3 -4 -8 -9 -11 -13 -14 -18 -19 -21 -31 -35 -36 -38 -42 -43 -45 -61 -63 -65 0
-11 -9 -8 -4 -3 -1 -65 -63 -45 -38 -21 -61 -43 -36 -19 -42 -35 -18 -31 -14 -13 0
-1 -21 -19 -18 -14 -13 -11 -9 -8 -4 -3 -65 -63 -45 -38 -61 -43 -36 -42 -35 -31 0
-13 -14 -18 -19 -21 -1 -31 -35 -36 -38 -3 -42 -43 -45 -4 -61 -63 -8 -65 -9 -11 0
-13 -3 -38 -36 -35 -31 -1 -21 -19 -18 -14 -11 -9 -8 -4 -65 -63 -45 -61 -43 -42 0
-31 -35 -36 -38 -3 -13 -42 -43 -45 -4 -14 -61 -63 -8 -18 -65 -9 -19 -11 -21 -1 0
-31 -14 -4 -45 -43 -42 -13 -3 -38 -36 -35 -1 -21 -19 -18 -11 -9 -8 -65 -63 -61 0
-42 -43 -45 -4 -14 -31 -61 -63 -8 -18 -35 -65 -9 -19 -36 -11 -21 -38 -1 -3 -13 0
-42 -35 -18 -8 -63 -61 -31 -14 -4 -45 -43 -13 -3 -38 -36 -1 -21 -19 -11 -9 -65 0
-61 -63 -8 -18 -35 -42 -65 -9 -19 -36 -43 -11 -21 -38 -45 -1 -3 -4 -13 -14 -31 0
-61 -43 -36 -19 -9 -65 -42 -35 -18 -8 -63 -31 -14 -4 -45 -13 -3 -38 -1 -21 -11 0
-65 -9 -19 -36 -43 -61 -11 -21 -38 -45 -63 -1 -3 -4 -8 -13 -14 -18 -31 -35 -42 0
-11 -21 -38 -45 -63 -65 -1 -3 -4 -8 -9 -13 -14 -18 -19 -31 -35 -36 -42 -43 -61 0
-65 -63 -45 -38 -21 -11 -61 -43 -36 -19 -9 -42 -35 -18 -8 -31 -14 -4 -13 -3 -1 0
-1 -3 -4 -8 -10 -11 -13 -14 -18 -20 -21 -31 -35 -37 -38 -42 -44 -45 -62 -63 -66 0
-11 -10 -8 -4 -3 -1 -66 -63 -45 -38 -21 -62 -44 -37 -20 -42 -35 -18 -31 -14 -13 0
-1 -21 -20 -18 -14 -13 -11 -10 -8 -4 -3 -66 -63 -45 -38 -62 -44 -37 -42 -35 -31 0
-13 -14 -18 -20 -21 -1 -31 -35 -37 -38 -3 -42 -44 -45 -4 -62 -63 -8 -66 -10 -11 0
-13 -3 -38 -37 -35 -31 -1 -21 -20 -18 -14 -11 -10 -8 -4 -66 -63 -45 -62 -44 -42 0
-31 -35 -37 -38 -3 -13 -42 -44 -45 -4 -14 -62 -63 -8 -18 -66 -10 -20 -11 -21 -1 0
-31 -14 -4 -45 -44 -42 -13 -3 -38 -37 -35 -1 -21 -20 -18 -11 -10 -8 -66 -63 -62 0
-42 -44 -45 -4 -14 -31 -62 -63 -8 -18 -35 -66 -10 -20 -37 -11 -21 -38 -1 -3 -13 0
-42 -35 -18 -8 -63 -62 -31 -14 -4 -45 -44 -13 -3 -38 -37 -1 -21 -20 -11 -10 -66 0
-62 -63 -8 -18 -35 -42 -66 -10 -20 -37 -44 -11 -21 -38 -45 -1 -3 -4 -13 -14 -31 0
-62 -44 -37 -20 -10 -66 -42 -35 -18 -8 -63 -31 -14 -4 -45 -13 -3 -38 -1 -21 -11 0
-66 -10 -20 -37 -44 -62 -11 -21 -38 -45 -63 -1 -3 -4 -8 -13 -14 -18 -31 -35 -42 0
-11 -21 -38 -45 -63 -66 -1 -3 -4 -8 -10 -13 -14 -18 -20 -31 -35 -37 -42 -44 -62 0
-66 -63 -45 -38 -21 -11 -62 -44 -37 -20 -10 -42 -35 -18 -8 -31 -14 -4 -13 -3 -1 0
-1 -3 -4 -9 -10 -11 -13 -14 -19 -20 -21 -31 -36 -37 -38 -43 -44 -45 -64 -65 -66 0
-11 -10 -9 -4 -3 -1 -66 -65 -45 -38 -21 -64 -44 -37 -20 -43 -36 -19 -31 -14 -13 0
-1 -21 -20 -19 -14 -13 -11 -10 -9 -4 -3 -66 -65 -45 -38 -64 -44 -37 -43 -36 -31 0
-13 -14 -19 -20 -21 -1 -31 -36 -37 -38 -3 -43 -44 -45 -4 -64 -65 -9 -66 -10 -11 0
-13 -3 -38 -37 -36 -31 -1 -21 -20 -19 -14 -11 -10 -9 -4 -66 -65 -45 -64 -44 -43 0
-31 -36 -37 -38 -3 -13 -43 -44 -45 -4 -14 -64 -65 -9 -19 -66 -10 -20 -11 -21 -1 0
-31 -14 -4 -45 -44 -43 -13 -3 -38 -37 -36 -1 -21 -20 -19 -11 -10 -9 -66 -65 -64 0
-43 -44 -45 -4 -14 -31 -64 -65 -9 -19 -36 -66 -10 -20 -37 -11 -21 -38 -1 -3 -13 0
-43 -36 -19 -9 -65 -64 -31 -14 -4 -45 -44 -13 -3 -38 -37 -1 -21 -20 -11 -10 -66 0
-64 -65 -9 -19 -36 -43 -66 -10 -20 -37 -44 -11 -21 -38 -45 -1 -3 -4 -13 -14 -31 0
-64 -44 -37 -20 -10 -66 -43 -36 -19 -9 -65 -31 -14 -4 -45 -13 -3 -38 -1 -21 -11 0
-66 -10 -20 -37 -44 -64 -11 -21 -38 -45 -65 -1 -3 -4 -9 -13 -14 -19 -31 -36 -43 0
-11 -21 -38 -45 -65 -66 -1 -3 -4 -9 -10 -13 -14 -19 -20 -31 -36 -37 -43 -44 -64 0
-66 -65 -45 -38 -21 -11 -64 -44 -37 -20 -10 -43 -36 -19 -9 -31 -14 -4 -13 -3 -1 0
-1 -3 -5 -6 -7 -8 -13 -15 -16 -17 -18 -32 -33 -34 -35 -46 -47 -48 -52 -53 -57 0
-8 -7 -6 -5 -3 -1 -57 -53 -48 -35 -18 -52 -47 -34 -17 -46 -33 -16 -32 -15 -13 0
-1 -18 -17 -16 -15 -13 -8 -7 -6 -5 -3 -57 -53 -48 -35 -52 -47 -34 -46 -33 -32 0
-13 -15 -16 -17 -18 -1 -32 -33 -34 -35 -3 -46 -47 -48 -5 -52 -53 -6 -57 -7 -8 0
-13 -3 -35 -34 -33 -32 -1 -18 -17 -16 -15 -8 -7 -6 -5 -57 -53 -48 -52 -47 -46 0
-32 -33 -34 -35 -3 -13 -46 -47 -48 -5 -15 -52 -53 -6 -16 -57 -7 -17 -8 -18 -1 0
-32 -15 -5 -48 -47 -46 -13 -3 -35 -34 -33 -1 -18 -17 -16 -8 -7 -6 -57 -53 -52 0
-46 -47 -48 -5 -15 -32 -52 -53 -6 -16 -33 -57 -7 -17 -34 -8 -18 -35 -1 -3 -13 0
-46 -33 -16 -6 -53 -52 -32 -15 -5 -48 -47 -13 -3 -35 -34 -1 -18 -17 -8 -7 -57 0
-52 -53 -6 -16 -33 -46 -57 -7 -17 -34 -47 -8 -18 -35 -48 -1 -3 -5 -13 -15 -32 0
-52 -47 -34 -17 -7 -57 -46 -33 -16 -6 -53 -32 -15 -5 -48 -13 -3 -35 -1 -18 -8 0
-57 -7 -17 -34 -47 -52 -8 -18 -35 -48 -53 -1 -3 -5 -6 -13 -15 -16 -32 -33 -46 0
-8 -18 -35 -48 -53 -57 -1 -3 -5 -6 -7 -13 -15 -16 -17 -32 -33 -34 -46 -47 -52 0
-57 -53 -48 -35 -18 -8 -52 -47 -34 -17 -7 -46 -33 -16 -6 -32 -15 -5 -13 -3 -1 0
-1 -3 -5 -6 -7 -9 -13 -15 -16 -17 -19 -32 -33 -34 -36 -46 -47 -49 -52 -54 -58 0
-9 -7 -6 -5 -3 -1 -58 -54 -49 -36 -19 -52 -47 -34 -17 -46 -33 -16 -32 -15 -13 0
-1 -19 -17 -16 -15 -13 -9 -7 -6 -5 -3 -58 -54 -49 -36 -52 -47 -34 -46 -33 -32 0
-13 -15 -16 -17 -19 -1 -32 -33 -34 -36 -3 -46 -47 -49 -5 -52 -54 -6 -58 -7 -9 0
-13 -3 -36 -34 -33 -32 -1 -19 -17 -16 -15 -9 -7 -6 -5 -58 -54 -49 -52 -47 -46 0
-32 -33 -34 -36 -3 -13 -46 -47 -49 -5 -15 -52 -54 -6 -16 -58 -7 -17 -9 -19 -1 0
-32 -15 -5 -49 -47 -46 -13 -3 -36 -34 -33 -1 -19 -17 -16 -9 -7 -6 -58 -54 -52 0
-46 -47 -49 -5 -15 -32 -52 -54 -6 -16 -33 -58 -7 -17 -34 -9 -19 -36 -1 -3 -13 0
-46 -33 -16 -6 -54 -52 -32 -15 -5 -49 -47 -13 -3 -36 -34 -1 -19 -17 -9 -7 -58 0
-52 -54 -6 -16 -33 -46 -58 -7 -17 -34 -47 -9 -19 -36 -49 -1 -3 -5 -13 -15 -32 0
-52 -47 -34 -17 -7 -58 -46 -33 -16 -6 -54 -32 -15 -5 -49 -13 -3 -36 -1 -19 -9 0
-58 -7 -17 -34 -47 -52 -9 -19 -36 -49 -54 -1 -3 -5 -6 -13 -15 -16 -32 -33 -46 0
-9 -19 -36 -49 -54 -58 -1 -3 -5 -6 -7 -13 -15 -16 -17 -32 -33 -34 -46 -47 -52 0
-58 -54 -49 -36 -19 -9 -52 -47 -34 -17 -7 -46 -33 -16 -6 -32 -15 -5 -13 -3 -1 0
-1 -3 -5 -6 -7 -10 -13 -15 -16 -17 -20 -32 -33 -34 -37 -46 -47 -50 -52 -55 -59 0
-10 -7 -6 -5 -3 -1 -59 -55 -50 -37 -20 -52 -47 -34 -17 -46 -33 -16 -32 -15 -13 0
-1 -20 -17 -16 -15 -13 -10 -7 -6 -5 -3 -59 -55 -50 -37 -52 -47 -34 -46 -33 -32 0
-13 -15 -16 -17 -20 -1 -32 -33 -34 -37 -3 -46 -47 -50 -5 -52 -55 -6 -59 -7 -10 0
-13 -3 -37 -34 -33 -32 -1 -20 -17 -16 -15 -10 -7 -6 -5 -59 -55 -50 -52 -47 -46 0
-32 -33 -34 -37 -3 -13 -46 -47 -50 -5 -15 -52 -55 -6 -16 -59 -7 -17 -10 -20 -1 0
-32 -15 -5 -50 -47 -46 -13 -3 -37 -34 -33 -1 -20 -17 -16 -10 -7 -6 -59 -55 -52 0
-46 -47 -50 -5 -15 -32 -52 -55 -6 -16 -33 -59 -7 -17 -34 -10 -20 -37 -1 -3 -13 0
-46 -33 -16 -6 -55 -52 -32 -15 -5 -50 -47 -13 -3 -37 -34 -1 -20 -17 -10 -7 -59 0
-52 -55 -6 -16 -33 -46 -59 -7 -17 -34 -47 -10 -20 -37 -50 -1 -3 -5 -13 -15 -32 0
-52 -47 -34 -17 -7 -59 -46 -33 -16 -6 -55 -32 -15 -5 -50 -13 -3 -37 -1 -20 -10 0
-59 -7 -17 -34 -47 -52 -10 -20 -37 -50 -55 -1 -3 -5 -6 -13 -15 -16 -32 -33 -46 0
-10 -20 -37 -50 -55 -59 -1 -3 -5 -6 -7 -13 -15 -16 -17 -32 -33 -34 -46 -47 -52 0
-59 -55 -50 -37 -20 -10 -52 -47 -34 -17 -7 -46 -33 -16 -6 -32 -15 -5 -13 -3 -1 0
-1 -3 -5 -6 -7 -11 -13 -15 -16 -17 -21 -32 -33 -34 -38 -46 -47 -51 -52 -56 -60 0
-11 -7 -6 -5 -3 -1 -60 -56 -51 -38 -21 -52 -47 -34 -17 -46 -33 -16 -32 -15 -13 0
-1 -21 -17 -16 -15 -13 -11 -7 -6 -5 -3 -60 -56 -51 -38 -52 -47 -34 -46 -33 -32 0
-13 -15 -16 -17 -21 -1 -32 -33 -34 -38 -3 -46 -47 -51 -5 -52 -56 -6 -60 -7 -11 0
-13 -3 -38 -34 -33 -32 -1 -21 -17 -16 -15 -11 -7 -6 -5 -60 -56 -51 -52 -47 -46 0
-32 -33 -34 -38 -3 -13 -46 -47 -51 -5 -15 -52 -56 -6 -16 -60 -7 -17 -11 -21 -1 0
-32 -15 -5 -51 -47 -46 -13 -3 -38 -34 -33 -1 -21 -17 -16 -11 -7 -6 -60 -56 -52 0
-46 -47 -51 -5 -15 -32 -52 -56 -6 -16 -33 -60 -7 -17 -34 -11 -21 -38 -1 -3 -13 0
-46 -33 -16 -6 -56 -52 -32 -15 -5 -51 -47 -13 -3 -38 -34 -1 -21 -17 -11 -7 -60 0
-52 -56 -6 -16 -33 -46 -60 -7 -17 -34 -47 -11 -21 -38 -51 -1 -3 -5 -13 -15 -32 0
-52 -47 -34 -17 -7 -60 -46 -33 -16 -6 -56 -32 -15 -5 -51 -13 -3 -38 -1 -21 -11 0
-60 -7 -17 -34 -47 -52 -11 -21 -38 -51 -56 -1 -3 -5 -6 -13 -15 -16 -32 -33 -46 0
-11 -21 -38 -51 -56 -60 -1 -3 -5 -6 -7 -13 -15 -16 -17 -32 -33 -34 -46 -47 -52 0
-60 -56 -51 -38 -21 -11 -52 -47 -34 -17 -7 -46 -33 -16 -6 -32 -15 -5 -13 -3 -1 0
-1 -3 -5 -6 -8 -9 -13 -15 -16 -18 -19 -32 -33 -35 -36 -46 -48 -49 -53 -54 -61 0
-9 -8 -6 -5 -3 -1 -61 -54 -49 -36 -19 -53 -48 -35 -18 -46 -33 -16 -32 -15 -13 0
-1 -19 -18 -16 -15 -13 -9 -8 -6 -5 -3 -61 -54 -49 -36 -53 -48 -35 -46 -33 -32 0
-13 -15 -16 -18 -19 -1 -32 -33 -35 -36 -3 -46 -48 -49 -5 -53 -54 -6 -61 -8 -9 0
-13 -3 -36 -35 -33 -32 -1 -19 -18 -16 -15 -9 -8 -6 -5 -61 -54 -49 -53 -48 -46 0
-32 -33 -35 -36 -3 -13 -46 -48 -49 -5 -15 -53 -54 -6 -16 -61 -8 -18 -9 -19 -1 0
-32 -15 -5 -49 -48 -46 -13 -3 -36 -35 -33 -1 -19 -18 -16 -9 -8 -6 -61 -54 -53 0
-46 -48 -49 -5 -15 -32 -53 -54 -6 -16 -33 -61 -8 -18 -35 -9 -19 -36 -1 -3 -13 0
-46 -33 -16 -6 -54 -53 -32 -15 -5 -49 -48 -13 -3 -36 -35 -1 -19 -18 -9 -8 -61 0
-53 -54 -6 -16 -33 -46 -61 -8 -18 -35 -48 -9 -19 -36 -49 -1 -3 -5 -13 -15 -32 0
-53 -48 -35 -18 -8 -61 -46 -33 -16 -6 -54 -32 -15 -5 -49 -13 -3 -36 -1 -19 -9 0
-61 -8 -18 -35 -48 -53 -9 -19 -36 -49 -54 -1 -3 -5 -6 -13 -15 -16 -32 -33 -46 0
-9 -19 -36 -49 -54 -61 -1 -3 -5 -6 -8 -13 -15 -16 -18 -32 -33 -35 -46 -48 -53 0
-61 -54 -49 -36 -19 -9 -53 -48 -35 -18 -8 -46 -33 -16 -6 -32 -15 -5 -13 -3 -1 0
-1 -3 -5 -6 -8 -10 -13 -15 -16 -18 -20 -32 -33 -35 -37 -46 -48 -50 -53 -55 -62 0
-10 -8 -6 -5 -3 -1 -62 -55 -50 -37 -20 -53 -48 -35 -18 -46 -33 -16 -32 -15 -13 0
-1 -20 -18 -16 -15 -13 -10 -8 -6 -5 -3 -62 -55 -50 -37 -53 -48 -35 -46 -33 -32 0
-13 -15 -16 -18 -20 -1 -32 -33 -35 -37 -3 -46 -48 -50 -5 -53 -55 -6 -62 -8 -10 0
-13 -3 -37 -35 -33 -32 -1 -20 -18 -16 -15 -10 -8 -6 -5 -62 -55 -50 -53 -48 -46 0
-32 -33 -35 -37 -3 -13 -46 -48 -50 -5 -15 -53 -55 -6 -16 -62 -8 -18 -10 -20 -1 0
-32 -15 -5 -50 -48 -46 -13 -3 -37 -35 -33 -1 -20 -18 -16 -10 -8 -6 -62 -55 -53 0
-46 -48 -50 -5 -15 -32 -53 -55 -6 -16 -33 -62 -8 -18 -35 -10 -20 -37 -1 -3 -13 0
-46 -33 -16 -6 -55 -53 -32 -15 -5 -50 -48 -13 -3 -37 -35 -1 -20 -18 -10 -8 -62 0
-53 -55 -6 -16 -33 -46 -62 -8 -18 -35 -48 -10 -20 -37 -50 -1 -3 -5 -13 -15 -32 0
-53 -48 -35 -18 -8 -62 -46 -33 -16 -6 -55 -32 -15 -5 -50 -13 -3 -37 -1 -20 -10 0
-62 -8 -18 -35 -48 -53 -10 -20 -37 -50 -55 -1 -3 -5 -6 -13 -15 -16 -32 -33 -46 0
-10 -20 -37 -50 -55 -62 -1 -3 -5 -6 -8 -13 -15 -16 -18 -32 -33 -35 -46 -48 -53 0
-62 -55 -50 -37 -20 -10 -53 -48 -35 -18 -8 -46 -33 -16 -6 -32 -15 -5 -13 -3 -1 0
-1 -3 -5 -6 -8 -11 -13 -15 -16 -18 -21 -32 -33 -35 -38 -46 -48 -51 -53 -56 -63 0
-11 -8 -6 -5 -3 -1 -63 -56 -51 -38 -21 -53 -48 -35 -18 -46 -33 -16 -32 -15 -13 0
-1 -21 -18 -16 -15 -13 -11 -8 -6 -5 -3 -63 -56 -51 -38 -53 -48 -35 -46 -33 -32 0
-13 -15 -16 -18 -21 -1 -32 -33 -35 -38 -3 -46 -48 -51 -5 -53 -56 -6 -63 -8 -11 0
-13 -3 -38 -35 -33 -32 -1 -21 -18 -16 -15 -11 -8 -6 -5 -63 -56 -51 -53 -48 -46 0
-32 -33 -35 -38 -3 -13 -46 -48 -51 -5 -15 -53 -56 -6 -16 -63 -8 -18 -11 -21 -1 0
-32 -15 -5 -51 -48 -46 -13 -3 -38 -35 -33 -1 -21 -18 -16 -11 -8 -6 -63 -56 -53 0
-46 -48 -51 -5 -15 -32 -53 -56 -6 -16 -33 -63 -8 -18 -35 -11 -21 -38 -1 -3 -13 0
-46 -33 -16 -6 -56 -53 -32 -15 -5 -51 -48 -13 -3 -38 -35 -1 -21 -18 -11 -8 -63 0
-53 -56 -6 -16 -33 -46 -63 -8 -18 -35 -48 -11 -21 -38 -51 -1 -3 -5 -13 -15 -32 0
-53 -48 -35 -18 -8 -63 -46 -33 -16 -6 -56 -32 -15 -5 -51 -13 -3 -38 -1 -21 -11 0
-63 -8 -18 -35 -48 -53 -11 -21 -38 -51 -56 -1 -3 -5 -6 -13 -15 -16 -32 -33 -46 0
-11 -21 -38 -51 -56 -63 -1 -3 -5 -6 -8 -13 -15 -16 -18 -32 -33 -35 -46 -48 -53 0
-63 -56 -51 -38 -21 -11 -53 -48 -35 -18 -8 -46 -33 -16 -6 -32 -15 -5 -13 -3 -1 0
-1 -3 -5 -6 -9 -10 -13 -15 -16 -19 -20 -32 -33 -36 -37 -46 -49 -50 -54 -55 -64 0
-10 -9 -6 -5 -3 -1 -64 -55 -50 -37 -20 -54 -49 -36 -19 -46 -33 -16 -32 -15 -13 0
-1 -20 -19 -16 -15 -13 -10 -9 -6 -5 -3 -64 -55 -50 -37 -54 -49 -36 -46 -33 -32 0
-13 -15 -16 -19 -20 -1 -32 -33 -36 -37 -3 -46 -49 -50 -5 -54 -55 -6 -64 -9 -10 0
-13 -3 -37 -36 -33 -32 -1 -20 -19 -16 -15 -10 -9 -6 -5 -64 -55 -50 -54 -49 -46 0
-32 -33 -36 -37 -3 -13 -46 -49 -50 -5 -15 -54 -55 -6 -16 -64 -9 -19 -10 -20 -1 0
-32 -15 -5 -50 -49 -46 -13 -3 -37 -36 -33 -1 -20 -19 -16 -10 -9 -6 -64 -55 -54 0
-46 -49 -50 -5 -15 -32 -54 -55 -6 -16 -33 -64 -9 -19 -36 -10 -20 -37 -1 -3 -13 0
-46 -33 -16 -6 -55 -54 -32 -15 -5 -50 -49 -13 -3 -37 -36 -1 -20 -19 -10 -9 -64 0
-54 -55 -6 -16 -33 -46 -64 -9 -19 -36 -49 -10 -20 -37 -50 -1 -3 -5 -13 -15 -32 0
-54 -49 -36 -19 -9 -64 -46 -33 -16 -6 -55 -32 -15 -5 -50 -13 -3 -37 -1 -20 -10 0
-64 -9 -19 -36 -49 -54 -10 -20 -37 -50 -55 -1 -3 -5 -6 -13 -15 -16 -32 -33 -46 0
-10 -20 -37 -50 -55 -64 -1 -3 -5 -6 -9 -13 -15 -16 -19 -32 -33 -36 -46 -49 -54 0
-64 -55 -50 -37 -20 -10 -54 -49 -36 -19 -9 -46 -33 -16 -6 -32 -15 -5 -13 -3 -1 0
-1 -3 -5 -6 -9 -11 -13 -15 -16 -19 -21 -32 -33 -36 -38 -46 -49 -51 -54 -56 -65 0
-11 -9 -6 -5 -3 -1 -65 -56 -51 -38 -21 -54 -49 -36 -19 -46 -33 -16 -32 -15 -13 0
-1 -21 -19 -16 -15 -13 -11 -9 -6 -5 -3 -65 -56 -51 -38 -54 -49 -36 -46 -33 -32 0
-13 -15 -16 -19 -21 -1 -32 -33 -36 -38 -3 -46 -49 -51 -5 -54 -56 -6 -65 -9 -11 0
-13 -3 -38 -36 -33 -32 -1 -21 -19 -16 -15 -11 -9 -6 -5 -65 -56 -51 -54 -49 -46 0
-32 -33 -36 -38 -3 -13 -46 -49 -51 -5 -15 -54 -56 -6 -16 -65 -9 -19 -11 -21 -1 0
-32 -15 -5 -51 -49 -46 -13 -3 -38 -36 -33 -1 -21 -19 -16 -11 -9 -6 -65 -56 -54 0
-46 -49 -51 -5 -15 -32 -54 -56 -6 -16 -33 -65 -9 -19 -36 -11 -21 -38 -1 -3 -13 0
-46 -33 -16 -6 -56 -54 -32 -15 -5 -51 -49 -13 -3 -38 -36 -1 -21 -19 -11 -9 -65 0
-54 -56 -6 -16 -33 -46 -65 -9 -19 -36 -49 -11 -21 -38 -51 -1 -3 -5 -13 -15 -32 0
-54 -49 -36 -19 -9 -65 -46 -33 -16 -6 -56 -32 -15 -5 -51 -13 -3 -38 -1 -21 -11 0
-65 -9 -19 -36 -49 -54 -11 -21 -38 -51 -56 -1 -3 -5 -6 -13 -15 -16 -32 -33 -46 0
-11 -21 -38 -51 -56 -65 -1 -3 -5 -6 -9 -13 -15 -16 -19 -32 -33 -36 -46 -49 -54 0
-65 -56 -51 -38 -21 -11 -54 -49 -36 -19 -9 -46 -33 -16 -6 -32 -15 -5 -13 -3 -1 0
-1 -3 -5 -6 -10 -11 -13 -15 -16 -20 -21 -32 -33 -37 -38 -46 -50 -51 -55 -56 -66 0
-11 -10 -6 -5 -3 -1 -66 -56 -51 -38 -21 -55 -50 -37 -20 -46 -33 -16 -32 -15 -13 0
-1 -21 -20 -16 -15 -13 -11 -10 -6 -5 -3 -66 -56 -51 -38 -55 -50 -37 -46 -33 -32 0
-13 -15 -16 -20 -21 -1 -32 -33 -37 -38 -3 -46 -50 -51 -5 -55 -56 -6 -66 -10 -11 0
-13 -3 -38 -37 -33 -32 -1 -21 -20 -16 -15 -11 -10 -6 -5 -66 -56 -51 -55 -50 -46 0
-32 -33 -37 -38 -3 -13 -46 -50 -51 -5 -15 -55 -56 -6 -16 -66 -10 -20 -11 -21 -1 0
-32 -15 -5 -51 -50 -46 -13 -3 -38 -37 -33 -1 -21 -20 -16 -11 -10 -6 -66 -56 -55 0
-46 -50 -51 -5 -15 -32 -55 -56 -6 -16 -33 -66 -10 -20 -37 -11 -21 -38 -1 -3 -13 0
-46 -33 -16 -6 -56 -55 -32 -15 -5 -51 -50 -13 -3 -38 -37 -1 -21 -20 -11 -10 -66 0
-55 -56 -6 -16 -33 -46 -66 -10 -20 -37 -50 -11 -21 -38 -51 -1 -3 -5 -13 -15 -32 0
-55 -50 -37 -20 -10 -66 -46 -33 -16 -6 -56 -32 -15 -5 -51 -13 -3 -38 -1 -21 -11 0
-66 -10 -20 -37 -50 -55 -11 -21 -38 -51 -56 -1 -3 -5 -6 -13 -15 -16 -32 -33 -46 0
-11 -21 -38 -51 -56 -66 -1 -3 -5 -6 -10 -13 -15 -16 -20 -32 -33 -37 -46 -50 -55 0
-66 -56 -51 -38 -21 -11 -55 -50 -37 -20 -10 -46 -33 -16 -6 -32 -15 -5 -13 -3 -1 0
-1 -3 -5 -7 -8 -9 -13 -15 -17 -18 -19 -32 -34 -35 -36 -47 -48 -49 -57 -58 -61 0
-9 -8 -7 -5 -3 -1 -61 -58 -49 -36 -19 -57 -48 -35 -18 -47 -34 -17 -32 -15 -13 0
-1 -19 -18 -17 -15 -13 -9 -8 -7 -5 -3 -61 -58 -49 -36 -57 -48 -35 -47 -34 -32 0
-13 -15 -17 -18 -19 -1 -32 -34 -35 -36 -3 -47 -48 -49 -5 -57 -58 -7 -61 -8 -9 0
-13 -3 -36 -35 -34 -32 -1 -19 -18 -17 -15 -9 -8 -7 -5 -61 -58 -49 -57 -48 -47 0
-32 -34 -35 -36 -3 -13 -47 -48 -49 -5 -15 -57 -58 -7 -17 -61 -8 -18 -9 -19 -1 0
-32 -15 -5 -49 -48 -47 -13 -3 -36 -35 -34 -1 -19 -18 -17 -9 -8 -7 -61 -58 -57 0
-47 -48 -49 -5 -15 -32 -57 -58 -7 -17 -34 -61 -8 -18 -35 -9 -19 -36 -1 -3 -13 0
-47 -34 -17 -7 -58 -57 -32 -15 -5 -49 -48 -13 -3 -36 -35 -1 -19 -18 -9 -8 -61 0
-57 -58 -7 -17 -34 -47 -61 -8 -18 -35 -48 -9 -19 -36 -49 -1 -3 -5 -13 -15 -32 0
-57 -48 -35 -18 -8 -61 -47 -34 -17 -7 -58 -32 -15 -5 -49 -13 -3 -36 -1 -19 -9 0
-61 -8 -18 -35 -48 -57 -9 -19 -36 -49 -58 -1 -3 -5 -7 -13 -15 -17 -32 -34 -47 0
-9 -19 -36 -49 -58 -61 -1 -3 -5 -7 -8 -13 -15 -17 -18 -32 -34 -35 -47 -48 -57 0
-61 -58 -49 -36 -19 -9 -57 -48 -35 -18 -8 -47 -34 -17 -7 -32 -15 -5 -13 -3 -1 0
-1 -3 -5 -7 -8 -10 -13 -15 -17 -18 -20 -32 -34 -35 -37 -47 -48 -50 -57 -59 -62 0
-10 -8 -7 -5 -3 -1 -62 -59 -50 -37 -20 -57 -48 -35 -18 -47 -34 -17 -32 -15 -13 0
-1 -20 -18 -17 -15 -13 -10 -8 -7 -5 -3 -62 -59 -50 -37 -57 -48 -35 -47 -34 -32 0
-13 -15 -17 -18 -20 -1 -32 -34 -35 -37 -3 -47 -48 -50 -5 -57 -59 -7 -62 -8 -10 0
-13 -3 -37 -35 -34 -32 -1 -20 -18 -17 -15 -10 -8 -7 -5 -62 -59 -50 -57 -48 -47 0
-32 -34 -35 -37 -3 -13 -47 -48 -50 -5 -15 -57 -59 -7 -17 -62 -8 -18 -10 -20 -1 0
-32 -15 -5 -50 -48 -47 -13 -3 -37 -35 -34 -1 -20 -18 -17 -10 -8 -7 -62 -59 -57 0
-47 -48 -50 -5 -15 -32 -57 -59 -7 -17 -34 -62 -8 -18 -35 -10 -20 -37 -1 -3 -13 0
-47 -34 -17 -7 -59 -57 -32 -15 -5 -50 -48 -13 -3 -37 -35 -1 -20 -18 -10 -8 -62 0
-57 -59 -7 -17 -34 -47 -62 -8 -18 -35 -48 -10 -20 -37 -50 -1 -3 -5 -13 -15 -32 0
-57 -48 -35 -18 -8 -62 -47 -34 -17 -7 -59 -32 -15 -5 -50 -13 -3 -37 -1 -20 -10 0
-62 -8 -18 -35 -48 -57 -10 -20 -37 -50 -59 -1 -3 -5 -7 -13 -15 -17 -32 -34 -47 0
-10 -20 -37 -50 -59 -62 -1 -3 -5 -7 -8 -13 -15 -17 -18 -32 -34 -35 -47 -48 -57 0
-62 -59 -50 -37 -20 -10 -57 -48 -35 -18 -8 -47 -34 -17 -7 -32 -15 -5 -13 -3 -1 0
-1 -3 -5 -7 -8 -11 -13 -15 -17 -18 -21 -32 -34 -35 -38 -47 -48 -51 -57 -60 -63 0
-11 -8 -7 -5 -3 -1 -63 -60 -51 -38 -21 -57 -48 -35 -18 -47 -34 -17 -32 -15 -13 0
-1 -21 -18 -17 -15 -13 -11 -8 -7 -5 -3 -63 -60 -51 -38 -57 -48 -35 -47 -34 -32 0
-13 -15 -17 -18 -21 -1 -32 -34 -35 -38 -3 -47 -48 -51 -5 -57 -60 -7 -63 -8 -11 0
-13 -3 -38 -35 -34 -32 -1 -21 -18 -17 -15 -11 -8 -7 -5 -63 -60 -51 -57 -48 -47 0
-32 -34 -35 -38 -3 -13 -47 -48 -51 -5 -15 -57 -60 -7 -17 -63 -8 -18 -11 -21 -1 0
-32 -15 -5 -51 -48 -47 -13 -3 -38 -35 -34 -1 -21 -18 -17 -11 -8 -7 -63 -60 -57 0
-47 -48 -51 -5 -15 -32 -57 -60 -7 -17 -34 -63 -8 -18 -35 -11 -21 -38 -1 -3 -13 0
-47 -34 -17 -7 -60 -57 -32 -15 -5 -51 -48 -13 -3 -38 -35 -1 -21 -18 -11 -8 -63 0
-57 -60 -7 -17 -34 -47 -63 -8 -18 -35 -48 -11 -21 -38 -51 -1 -3 -5 -13 -15 -32 0
-57 -48 -35 -18 -8 -63 -47 -34 -17 -7 -60 -32 -15 -5 -51 -13 -3 -38 -1 -21 -11 0
-63 -8 -18 -35 -48 -57 -11 -21 -38 -51 -60 -1 -3 -5 -7 -13 -15 -17 -32 -34 -47 0
-11 -21 -38 -51 -60 -63 -1 -3 -5 -7 -8 -13 -15 -17 -18 -32 -34 -35 -47 -48 -57 0
-63 -60 -51 -38 -21 -11 -57 -48 -35 -18 -8 -47 -34 -17 -7 -32 -15 -5 -13 -3 -1 0
-1 -3 -5 -7 -9 -10 -13 -15 -17 -19 -20 -32 -34 -36 -37 -47 -49 -50 -58 -59 -64 0
-10 -9 -7 -5 -3 -1 -64 -59 -50 -37 -20 -58 -49 -36 -19 -47 -34 -17 -32 -15 -13 0
-1 -20 -19 -17 -15 -13 -10 -9 -7 -5 -3 -64 -59 -50 -37 -58 -49 -36 -47 -34 -32 0
-13 -15 -17 -19 -20 -1 -32 -34 -36 -37 -3 -47 -49 -50 -5 -58 -59 -7 -64 -9 -10 0
-13 -3 -37 -36 -34 -32 -1 -20 -19 -17 -15 -10 -9 -7 -5 -64 -59 -50 -58 -49 -47 0
-32 -34 -36 -37 -3 -13 -47 -49 -50 -5 -15 -58 -59 -7 -17 -64 -9 -19 -10 -20 -1 0
-32 -15 -5 -50 -49 -47 -13 -3 -37 -36 -34 -1 -20 -19 -17 -10 -9 -7 -64 -59 -58 0
-47 -49 -50 -5 -15 -32 -58 -59 -7 -17 -34 -64 -9 -19 -36 -10 -20 -37 -1 -3 -13 0
-47 -34 -17 -7 -59 -58 -32 -15 -5 -50 -49 -13 -3 -37 -36 -1 -20 -19 -10 -9 -64 0
-58 -59 -7 -17 -34 -47 -64 -9 -19 -36 -49 -10 -20 -37 -50 -1 -3 -5 -13 -15 -32 0
-58 -49 -36 -19 -9 -64 -47 -34 -17 -7 -59 -32 -15 -5 -50 -13 -3 -37 -1 -20 -10 0
-64 -9 -19 -36 -49 -58 -10 -20 -37 -50 -59 -1 -3 -5 -7 -13 -15 -17 -32 -34 -47 0
-10 -20 -37 -50 -59 -64 -1 -3 -5 -7 -9 -13 -15 -17 -19 -32 -34 -36 -47 -49 -58 0
-64 -59 -50 -37 -20 -10 -58 -49 -36 -19 -9 -47 -34 -17 -7 -32 -15 -5 -13 -3 -1 0
-1 -3 -5 -7 -9 -11 -13 -15 -17 -19 -21 -32 -34 -36 -38 -47 -49 -51 -58 -60 -65 0
-11 -9 -7 -5 -3 -1 -65 -60 -51 -38 -21 -58 -49 -36 -19 -47 -34 -17 -32 -15 -13 0
-1 -21 -19 -17 -15 -13 -11 -9 -7 -5 -3 -65 -60 -51 -38 -58 -49 -36 -47 -34 -32 0
-13 -15 -17 -19 -21 -1 -32 -34 -36 -38 -3 -47 -49 -51 -5 -58 -60 -7 -65 -9 -11 0
-13 -3 -38 -36 -34 -32 -1 -21 -19 -17 -15 -11 -9 -7 -5 -65 -60 -51 -58 -49 -47 0
-32 -34 -36 -38 -3 -13 -47 -49 -51 -5 -15 -58 -60 -7 -17 -65 -9 -19 -11 -21 -1 0
-32 -15 -5 -51 -49 -47 -13 -3 -38 -36 -34 -1 -21 -19 -17 -11 -9 -7 -65 -60 -58 0
-47 -49 -51 -5 -15 -32 -58 -60 -7 -17 -34 -65 -9 -19 -36 -11 -21 -38 -1 -3 -13 0
-47 -34 -17 -7 -60 -58 -32 -15 -5 -51 -49 -13 -3 -38 -36 -1 -21 -19 -11 -9 -65 0
-58 -60 -7 -17 -34 -47 -65 -9 -19 -36 -49 -11 -21 -38 -51 -1 -3 -5 -13 -15 -32 0
-58 -49 -36 -19 -9 -65 -47 -34 -17 -7 -60 -32 -15 -5 -51 -13 -3 -38 -1 -21 -11 0
-65 -9 -19 -36 -49 -58 -11 -21 -38 -51 -60 -1 -3 -5 -7 -13 -15 -17 -32 -34 -47 0
-11 -21 -38 -51 -60 -65 -1 -3 -5 -7 -9 -13 -15 -17 -19 -32 -34 -36 -47 -49 -58 0
-65 -60 -51 -38 -21 -11 -58 -49 -36 -19 -9 -47 -34 -17 -7 -32 -15 -5 -13 -3 -1 0
-1 -3 -5 -7 -10 -11 -13 -15 -17 -20 -21 -32 -34 -37 -38 -47 -50 -51 -59 -60 -66 0
-11 -10 -7 -5 -3 -1 -66 -60 -51 -38 -21 -59 -50 -37 -20 -47 -34 -17 -32 -15 -13 0
-1 -21 -20 -17 -15 -13 -11 -10 -7 -5 -3 -66 -60 -51 -38 -59 -50 -37 -47 -34 -32 0
-13 -15 -17 -20 -21 -1 -32 -34 -37 -38 -3 -47 -50 -51 -5 -59 -60 -7 -66 -10 -11 0
-13 -3 -38 -37 -34 -32 -1 -21 -20 -17 -15 -11 -10 -7 -5 -66 -60 -51 -59 -50 -47 0
-32 -34 -37 -38 -3 -13 -47 -50 -51 -5 -15 -59 -60 -7 -17 -66 -10 -20 -11 -21 -1 0
-32 -15 -5 -51 -50 -47 -13 -3 -38 -37 -34 -1 -21 -20 -17 -11 -10 -7 -66 -60 -59 0
-47 -50 -51 -5 -15 -32 -59 -60 -7 -17 -34 -66 -10 -20 -37 -11 -21 -38 -1 -3 -13 0
-47 -34 -17 -7 -60 -59 -32 -15 -5 -51 -50 -13 -3 -38 -37 -1 -21 -20 -11 -10 -66 0
-59 -60 -7 -17 -34 -47 -66 -10 -20 -37 -50 -11 -21 -38 -51 -1 -3 -5 -13 -15 -32 0
-59 -50 -37 -20 -10 -66 -47 -34 -17 -7 -60 -32 -15 -5 -51 -13 -3 -38 -1 -21 -11 0
-66 -10 -20 -37 -50 -59 -11 -21 -38 -51 -60 -1 -3 -5 -7 -13 -15 -17 -32 -34 -47 0
-11 -21 -38 -51 -60 -66 -1 -3 -5 -7 -10 -13 -15 -17 -20 -32 -34 -37 -47 -50 -59 0
-66 -60 -51 -38 -21 -11 -59 -50 -37 -20 -10 -47 -34 -17 -7 -32 -15 -5 -13 -3 -1 0
-1 -3 -5 -8 -9 -10 -13 -15 -18 -19 -20 -32 -35 -36 -37 -48 -49 -50 -61 -62 -64 0
-10 -9 -8 -5 -3 -1 -64 -62 -50 -37 -20 -61 -49 -36 -19 -48 -35 -18 -32 -15 -13 0
-1 -20 -19 -18 -15 -13 -10 -9 -8 -5 -3 -64 -62 -50 -37 -61 -49 -36 -48 -35 -32 0
-13 -15 -18 -19 -20 -1 -32 -35 -36 -37 -3 -48 -49 -50 -5 -61 -62 -8 -64 -9 -10 0
-13 -3 -37 -36 -35 -32 -1 -20 -19 -18 -15 -10 -9 -8 -5 -64 -62 -50 -61 -49 -48 0
-32 -35 -36 -37 -3 -13 -48 -49 -50 -5 -15 -61 -62 -8 -18 -64 -9 -19 -10 -20 -1 0
-32 -15 -5 -50 -49 -48 -13 -3 -37 -36 -35 -1 -20 -19 -18 -10 -9 -8 -64 -62 -61 0
-48 -49 -50 -5 -15 -32 -61 -62 -8 -18 -35 -64 -9 -19 -36 -10 -20 -37 -1 -3 -13 0
-48 -35 -18 -8 -62 -61 -32 -15 -5 -50 -49 -13 -3 -37 -36 -1 -20 -19 -10 -9 -64 0
-61 -62 -8 -18 -35 -48 -64 -9 -19 -36 -49 -10 -20 -37 -50 -1 -3 -5 -13 -15 -32 0
-61 -49 -36 -19 -9 -64 -48 -35 -18 -8 -62 -32 -15 -5 -50 -13 -3 -37 -1 -20 -10 0
-64 -9 -19 -36 -49 -61 -10 -20 -37 -50 -62 -1 -3 -5 -8 -13 -15 -18 -32 -35 -48 0
-10 -20 -37 -50 -62 -64 -1 -3 -5 -8 -9 -13 -15 -18 -19 -32 -35 -36 -48 -49 -61 0
-64 -62 -50 -37 -20 -10 -61 -49 -36 -19 -9 -48 -35 -18 -8 -32 -15 -5 -13 -3 -1 0
-1 -3 -5 -8 -9 -11 -13 -15 -18 -19 -21 -32 -35 -36 -38 -48 -49 -51 -61 -63 -65 0
-11 -9 -8 -5 -3 -1 -65 -63 -51 -38 -21 -61 -49 -36 -19 -48 -35 -18 -32 -15 -13 0
-1 -21 -19 -18 -15 -13 -11 -9 -8 -5 -3 -65 -63 -51 -38 -61 -49 -36 -48 -35 -32 0
-13 -15 -18 -19 -21 -1 -32 -35 -36 -38 -3 -48 -49 -51 -5 -61 -63 -8 -65 -9 -11 0
-13 -3 -38 -36 -35 -32 -1 -21 -19 -18 -15 -11 -9 -8 -5 -65 -63 -51 -61 -49 -48 0
-32 -35 -36 -38 -3 -13 -48 -49 -51 -5 -15 -61 -63 -8 -18 -65 -9 -19 -11 -21 -1 0
-32 -15 -5 -51 -49 -48 -13 -3 -38 -36 -35 -1 -21 -19 -18 -11 -9 -8 -65 -63 -61 0
-48 -49 -51 -5 -15 -32 -61 -63 -8 -18 -35 -65 -9 -19 -36 -11 -21 -38 -1 -3 -13 0
-48 -35 -18 -8 -63 -61 -32 -15 -5 -51 -49 -13 -3 -38 -36 -1 -21 -19 -11 -9 -65 0
-61 -63 -8 -18 -35 -48 -65 -9 -19 -36 -49 -11 -21 -38 -51 -1 -3 -5 -13 -15 -32 0
-61 -49 -36 -19 -9 -65 -48 -35 -18 -8 -63 -32 -15 -5 -51 -13 -3 -38 -1 -21 -11 0
-65 -9 -19 -36 -49 -61 -11 -21 -38 -51 -63 -1 -3 -5 -8 -13 -15 -18 -32 -35 -48 0
-11 -21 -38 -51 -63 -65 -1 -3 -5 -8 -9 -13 -15 -18 -19 -32 -35 -36 -48 -49 -61 0
-65 -63 -51 -38 -21 -11 -61 -49 -36 -19 -9 -48 -35 -18 -8 -32 -15 -5 -13 -3 -1 0
-1 -3 -5 -8 -10 -11 -13 -15 -18 -20 -21 -32 -35 -37 -38 -48 -50 -51 -62 -63 -66 0
-11 -10 -8 -5 -3 -1 -66 -63 -51 -38 -21 -62 -50 -37 -20 -48 -35 -18 -32 -15 -13 0
-1 -21 -20 -18 -15 -13 -11 -10 -8 -5 -3 -66 -63 -51 -38 -62 -50 -37 -48 -35 -32 0
-13 -15 -18 -20 -21 -1 -32 -35 -37 -38 -3 -48 -50 -51 -5 -62 -63 -8 -66 -10 -11 0
-13 -3 -38 -37 -35 -32 -1 -21 -20 -18 -15 -11 -10 -8 -5 -66 -63 -51 -62 -50 -48 0
-32 -35 -37 -38 -3 -13 -48 -50 -51 -5 -15 -62 -63 -8 -18 -66 -10 -20 -11 -21 -1 0
-32 -15 -5 -51 -50 -48 -13 -3 -38 -37 -35 -1 -21 -20 -18 -11 -10 -8 -66 -63 -62 0
-48 -50 -51 -5 -15 -32 -62 -63 -8 -18 -35 -66 -10 -20 -37 -11 -21 -38 -1 -3 -13 0
-48 -35 -18 -8 -63 -62 -32 -15 -5 -51 -50 -13 -3 -38 -37 -1 -21 -20 -11 -10 -66 0
-62 -63 -8 -18 -35 -48 -66 -10 -20 -37 -50 -11 -21 -38 -51 -1 -3 -5 -13 -15 -32 0
-62 -50 -37 -20 -10 -66 -48 -35 -18 -8 -63 -32 -15 -5 -51 -13 -3 -38 -1 -21 -11 0
-66 -10 -20 -37 -50 -62 -11 -21 -38 -51 -63 -1 -3 -5 -8 -13 -15 -18 -32 -35 -48 0
-11 -21 -38 -51 -63 -66 -1 -3 -5 -8 -10 -13 -15 -18 -20 -32 -35 -37 -48 -50 -62 0
-66 -63 -51 -38 -21 -11 -62 -50 -37 -20 -10 -48 -35 -18 -8 -32 -15 -5 -13 -3 -1 0
-1 -3 -5 -9 -10 -11 -13 -15 -19 -20 -21 -32 -36 -37 -38 -49 -50 -51 -64 -65 -66 0
-11 -10 -9 -5 -3 -1 -66 -65 -51 -38 -21 -64 -50 -37 -20 -49 -36 -19 -32 -15 -13 0
-1 -21 -20 -19 -15 -13 -11 -10 -9 -5 -3 -66 -65 -51 -38 -64 -50 -37 -49 -36 -32 0
-13 -15 -19 -20 -21 -1 -32 -36 -37 -38 -3 -49 -50 -51 -5 -64 -65 -9 -66 -10 -11 0
-13 -3 -38 -37 -36 -32 -1 -21 -20 -19 -15 -11 -10 -9 -5 -66 -65 -51 -64 -50 -49 0
-32 -36 -37 -38 -3 -13 -49 -50 -51 -5 -15 -64 -65 -9 -19 -66 -10 -20 -11 -21 -1 0
-32 -15 -5 -51 -50 -49 -13 -3 -38 -37 -36 -1 -21 -20 -19 -11 -10 -9 -66 -65 -64 0
-49 -50 -51 -5 -15 -32 -64 -65 -9 -19 -36 -66 -10 -20 -37 -11 -21 -38 -1 -3 -13 0
-49 -36 -19 -9 -65 -64 -32 -15 -5 -51 -50 -13 -3 -38 -37 -1 -21 -20 -11 -10 -66 0
-64 -65 -9 -19 -36 -49 -66 -10 -20 -37 -50 -11 -21 -38 -51 -1 -3 -5 -13 -15 -32 0
-64 -50 -37 -20 -10 -66 -49 -36 -19 -9 -65 -32 -15 -5 -51 -13 -3 -38 -1 -21 -11 0
-66 -10 -20 -37 -50 -64 -11 -21 -38 -51 -65 -1 -3 -5 -9 -13 -15 -19 -32 -36 -49 0
-11 -21 -38 -51 -65 -66 -1 -3 -5 -9 -10 -13 -15 -19 -20 -32 -36 -37 -49 -50 -64 0
-66 -65 -51 -38 -21 -11 -64 -50 -37 -20 -10 -49 -36 -19 -9 -32 -15 -5 -13 -3 -1 0
-1 -3 -6 -7 -8 -9 -13 -16 -17 -18 -19 -33 -34 -35 -36 -52 -53 -54 -57 -58 -61 0
-9 -8 -7 -6 -3 -1 -61 -58 -54 -36 -19 -57 -53 -35 -18 -52 -34 -17 -33 -16 -13 0
-1 -19 -18 -17 -16 -13 -9 -8 -7 -6 -3 -61 -58 -54 -36 -57 -53 -35 -52 -34 -33 0
-13 -16 -17 -18 -19 -1 -33 -34 -35 -36 -3 -52 -53 -54 -6 -57 -58 -7 -61 -8 -9 0
-13 -3 -36 -35 -34 -33 -1 -19 -18 -17 -16 -9 -8 -7 -6 -61 -58 -54 -57 -53 -52 0
-33 -34 -35 -36 -3 -13 -52 -53 -54 -6 -16 -57 -58 -7 -17 -61 -8 -18 -9 -19 -1 0
-33 -16 -6 -54 -53 -52 -13 -3 -36 -35 -34 -1 -19 -18 -17 -9 -8 -7 -61 -58 -57 0
-52 -53 -54 -6 -16 -33 -57 -58 -7 -17 -34 -61 -8 -18 -35 -9 -19 -36 -1 -3 -13 0
-52 -34 -17 -7 -58 -57 -33 -16 -6 -54 -53 -13 -3 -36 -35 -1 -19 -18 -9 -8 -61 0
-57 -58 -7 -17 -34 -52 -61 -8 -18 -35 -53 -9 -19 -36 -54 -1 -3 -6 -13 -16 -33 0
-57 -53 -35 -18 -8 -61 -52 -34 -17 -7 -58 -33 -16 -6 -54 -13 -3 -36 -1 -19 -9 0
-61 -8 -18 -35 -53 -57 -9 -19 -36 -54 -58 -1 -3 -6 -7 -13 -16 -17 -33 -34 -52 0
-9 -19 -36 -54 -58 -61 -1 -3 -6 -7 -8 -13 -16 -17 -18 -33 -34 -35 -52 -53 -57 0
-61 -58 -54 -36 -19 -9 -57 -53 -35 -18 -8 -52 -34 -17 -7 -33 -16 -6 -13 -3 -1 0
-1 -3 -6 -7 -8 -10 -13 -16 -17 -18 -20 -33 -34 -35 -37 -52 -53 -55 -57 -59 -62 0
-10 -8 -7 -6 -3 -1 -62 -59 -55 -37 -20 -57 -53 -35 -18 -52 -34 -17 -33 -16 -13 0
-1 -20 -18 -17 -16 -13 -10 -8 -7 -6 -3 -62 -59 -55 -37 -57 -53 -35 -52 -34 -33 0
-13 -16 -17 -18 -20 -1 -33 -34 -35 -37 -3 -52 -53 -55 -6 -57 -59 -7 -62 -8 -10 0
-13 -3 -37 -35 -34 -33 -1 -20 -18 -17 -16 -10 -8 -7 -6 -62 -59 -55 -57 -53 -52 0
-33 -34 -35 -37 -3 -13 -52 -53 -55 -6 -16 -57 -59 -7 -17 -62 -8 -18 -10 -20 -1 0
-33 -16 -6 -55 -53 -52 -13 -3 -37 -35 -34 -1 -20 -18 -17 -10 -8 -7 -62 -59 -57 0
-52 -53 -55 -6 -16 -33 -57 -59 -7 -17 -34 -62 -8 -18 -35 -10 -20 -37 -1 -3 -13 0
-52 -34 -17 -7 -59 -57 -33 -16 -6 -55 -53 -13 -3 -37 -35 -1 -20 -18 -10 -8 -62 0
-57 -59 -7 -17 -34 -52 -62 -8 -18 -35 -53 -10 -20 -37 -55 -1 -3 -6 -13 -16 -33 0
-57 -53 -35 -18 -8 -62 -52 -34 -17 -7 -59 -33 -16 -6 -55 -13 -3 -37 -1 -20 -10 0
-62 -8 -18 -35 -53 -57 -10 -20 -37 -55 -59 -1 -3 -6 -7 -13 -16 -17 -33 -34 -52 0
-10 -20 -37 -55 -59 -62 -1 -3 -6 -7 -8 -13 -16 -17 -18 -33 -34 -35 -52 -53 -57 0
-62 -59 -55 -37 -20 -10 -57 -53 -35 -18 -8 -52 -34 -17 -7 -33 -16 -6 -13 -3 -1 0
-1 -3 -6 -7 -8 -11 -13 -16 -17 -18 -21 -33 -34 -35 -38 -52 -53 -56 -57 -60 -63 0
-11 -8 -7 -6 -3 -1 -63 -60 -56 -38 -21 -57 -53 -35 -18 -52 -34 -17 -33 -16 -13 0
-1 -21 -18 -17 -16 -13 -11 -8 -7 -6 -3 -63 -60 -56 -38 -57 -53 -35 -52 -34 -33 0
-13 -16 -17 -18 -21 -1 -33 -34 -35 -38 -3 -52 -53 -56 -6 -57 -60 -7 -63 -8 -11 0
-13 -3 -38 -35 -34 -33 -1 -21 -18 -17 -16 -11 -8 -7 -6 -63 -60 -56 -57 -53 -52 0
-33 -34 -35 -38 -3 -13 -52 -53 -56 -6 -16 -57 -60 -7 -17 -63 -8 -18 -11 -21 -1 0
-33 -16 -6 -56 -53 -52 -13 -3 -38 -35 -34 -1 -21 -18 -17 -11 -8 -7 -63 -60 -57 0
-52 -53 -56 -6 -16 -33 -57 -60 -7 -17 -34 -63 -8 -18 -35 -11 -21 -38 -1 -3 -13 0
-52 -34 -17 -7 -60 -57 -33 -16 -6 -56 -53 -13 -3 -38 -35 -1 -21 -18 -11 -8 -63 0
-57 -60 -7 -17 -34 -52 -63 -8 -18 -35 -53 -11 -21 -38 -56 -1 -3 -6 -13 -16 -33 0
-57 -53 -35 -18 -8 -63 -52 -34 -17 -7 -60 -33 -16 -6 -56 -13 -3 -38 -1 -21 -11 0
-63 -8 -18 -35 -53 -57 -11 -21 -38 -56 -60 -1 -3 -6 -7 -13 -16 -17 -33 -34 -52 0
-11 -21 -38 -56 -60 -63 -1 -3 -6 -7 -8 -13 -16 -17 -18 -33 -34 -35 -52 -53 -57 0
-63 -60 -56 -38 -21 -11 -57 -53 -35 -18 -8 -52 -34 -17 -7 -33 -16 -6 -13 -3 -1 0
-1 -3 -6 -7 -9 -10 -13 -16 -17 -19 -20 -33 -34 -36 -37 -52 -54 -55 -58 -59 -64 0
-10 -9 -7 -6 -3 -1 -64 -59 -55 -37 -20 -58 -54 -36 -19 -52 -34 -17 -33 -16 -13 0
-1 -20 -19 -17 -16 -13 -10 -9 -7 -6 -3 -64 -59 -55 -37 -58 -54 -36 -52 -34 -33 0
-13 -16 -17 -19 -20 -1 -33 -34 -36 -37 -3 -52 -54 -55 -6 -58 -59 -7 -64 -9 -10 0
-13 -3 -37 -36 -34 -33 -1 -20 -19 -17 -16 -10 -9 -7 -6 -64 -59 -55 -58 -54 -52 0
-33 -34 -36 -37 -3 -13 -52 -54 -55 -6 -16 -58 -59 -7 -17 -64 -9 -19 -10 -20 -1 0
-33 -16 -6 -55 -54 -52 -13 -3 -37 -36 -34 -1 -20 -19 -17 -10 -9 -7 -64 -59 -58 0
-52 -54 -55 -6 -16 -33 -58 -59 -7 -17 -34 -64 -9 -19 -36 -10 -20 -37 -1 -3 -13 0
-52 -34 -17 -7 -59 -58 -33 -16 -6 -55 -54 -13 -3 -37 -36 -1 -20 -19 -10 -9 -64 0
-58 -59 -7 -17 -34 -52 -64 -9 -19 -36 -54 -10 -20 -37 -55 -1 -3 -6 -13 -16 -33 0
-58 -54 -36 -19 -9 -64 -52 -34 -17 -7 -59 -33 -16 -6 -55 -13 -3 -37 -1 -20 -10 0
-64 -9 -19 -36 -54 -58 -10 -20 -37 -55 -59 -1 -3 -6 -7 -13 -16 -17 -33 -34 -52 0
-10 -20 -37 -55 -59 -64 -1 -3 -6 -7 -9 -13 -16 -17 -19 -33 -34 -36 -52 -54 -58 0
-64 -59 -55 -37 -20 -10 -58 -54 -36 -19 -9 -52 -34 -17 -7 -33 -16 -6 -13 -3 -1 0
-1 -3 -6 -7 -9 -11 -13 -16 -17 -19 -21 -33 -34 -36 -38 -52 -54 -56 -58 -60 -65 0
-11 -9 -7 -6 -3 -1 -65 -60 -56 -38 -21 -58 -54 -36 -19 -52 -34 -17 -33 -16 -13 0
-1 -21 -19 -17 -16 -13 -11 -9 -7 -6 -3 -65 -60 -56 -38 -58 -54 -36 -52 -34 -33 0
-13 -16 -17 -19 -21 -1 -33 -34 -36 -38 -3 -52 -54 -56 -6 -58 -60 -7 -65 -9 -11 0
-13 -3 -38 -36 -34 -33 -1 -21 -19 -17 -16 -11 -9 -7 -6 -65 -60 -56 -58 -54 -52 0
-33 -34 -36 -38 -3 -13 -52 -54 -56 -6 -16 -58 -60 -7 -17 -65 -9 -19 -11 -21 -1 0
-33 -16 -6 -56 -54 -52 -13 -3 -38 -36 -34 -1 -21 -19 -17 -11 -9 -7 -65 -60 -58 0
-52 -54 -56 -6 -16 -33 -58 -60 -7 -17 -34 -65 -9 -19 -36 -11 -21 -38 -1 -3 -13 0
-52 -34 -17 -7 -60 -58 -33 -16 -6 -56 -54 -13 -3 -38 -36 -1 -21 -19 -11 -9 -65 0
-58 -60 -7 -17 -34 -52 -65 -9 -19 -36 -54 -11 -21 -38 -56 -1 -3 -6 -13 -16 -33 0
-58 -54 -36 -19 -9 -65 -52 -34 -17 -7 -60 -33 -16 -6 -56 -13 -3 -38 -1 -21 -11 0
-65 -9 -19 -36 -54 -58 -11 -21 -38 -56 -60 -1 -3 -6 -7 -13 -16 -17 -33 -34 -52 0
-11 -21 -38 -56 -60 -65 -1 -3 -6 -7 -9 -13 -16 -17 -19 -33 -34 -36 -52 -54 -58 0
-65 -60 -56 -38 -21 -11 -58 -54 -36 -19 -9 -52 -34 -17 -7 -33 -16 -6 -13 -3 -1 0
-1 -3 -6 -7 -10 -11 -13 -16 -17 -20 -21 -33 -34 -37 -38 -52 -55 -56 -59 -60 -66 0
-11 -10 -7 -6 -3 -1 -66 -60 -56 -38 -21 -59 -55 -37 -20 -52 -34 -17 -33 -16 -13 0
-1 -21 -20 -17 -16 -13 -11 -10 -7 -6 -3 -66 -60 -56 -38 -59 -55 -37 -52 -34 -33 0
-13 -16 -17 -20 -21 -1 -33 -34 -37 -38 -3 -52 -55 -56 -6 -59 -60 -7 -66 -10 -11 0
-13 -3 -38 -37 -34 -33 -1 -21 -20 -17 -16 -11 -10 -7 -6 -66 -60 -56 -59 -55 -52 0
-33 -34 -37 -38 -3 -13 -52 -55 -56 -6 -16 -59 -60 -7 -17 -66 -10 -20 -11 -21 -1 0
-33 -16 -6 -56 -55 -52 -13 -3 -38 -37 -34 -1 -21 -20 -17 -11 -10 -7 -66 -60 -59 0
-52 -55 -56 -6 -16 -33 -59 -60 -7 -17 -34 -66 -10 -20 -37 -11 -21 -38 -1 -3 -13 0
-52 -34 -17 -7 -60 -59 -33 -16 -6 -56 -55 -13 -3 -38 -37 -1 -21 -20 -11 -10 -66 0
-59 -60 -7 -17 -34 -52 -66 -10 -20 -37 -55 -11 -21 -38 -56 -1 -3 -6 -13 -16 -33 0
-59 -55 -37 -20 -10 -66 -52 -34 -17 -7 -60 -33 -16 -6 -56 -13 -3 -38 -1 -21 -11 0
-66 -10 -20 -37 -55 -59 -11 -21 -38 -56 -60 -1 -3 -6 -7 -13 -16 -17 -33 -34 -52 0
-11 -21 -38 -56 -60 -66 -1 -3 -6 -7 -10 -13 -16 -17 -20 -33 -34 -37 -52 -55 -59 0
-66 -60 -56 -38 -21 -11 -59 -55 -37 -20 -10 -52 -34 -17 -7 -33 -16 -6 -13 -3 -1 0
-1 -3 -6 -8 -9 -10 -13 -16 -18 -19 -20 -33 -35 -36 -37 -53 -54 -55 -61 -62 -64 0
-10 -9 -8 -6 -3 -1 -64 -62 -55 -37 -20 -61 -54 -36 -19 -53 -35 -18 -33 -16 -13 0
-1 -20 -19 -18 -16 -13 -10 -9 -8 -6 -3 -64 -62 -55 -37 -61 -54 -36 -53 -35 -33 0
-13 -16 -18 -19 -20 -1 -33 -35 -36 -37 -3 -53 -54 -55 -6 -61 -62 -8 -64 -9 -10 0
-13 -3 -37 -36 -35 -33 -1 -20 -19 -18 -16 -10 -9 -8 -6 -64 -62 -55 -61 -54 -53 0
-33 -35 -36 -37 -3 -13 -53 -54 -55 -6 -16 -61 -62 -8 -18 -64 -9 -19 -10 -20 -1 0
-33 -16 -6 -55 -54 -53 -13 -3 -37 -36 -35 -1 -20 -19 -18 -10 -9 -8 -64 -62 -61 0
-53 -54 -55 -6 -16 -33 -61 -62 -8 -18 -35 -64 -9 -19 -36 -10 -20 -37 -1 -3 -13 0
-53 -35 -18 -8 -62 -61 -33 -16 -6 -55 -54 -13 -3 -37 -36 -1 -20 -19 -10 -9 -64 0
-61 -62 -8 -18 -35 -53 -64 -9 -19 -36 -54 -10 -20 -37 -55 -1 -3 -6 -13 -16 -33 0
-61 -54 -36 -19 -9 -64 -53 -35 -18 -8 -62 -33 -16 -6 -55 -13 -3 -37 -1 -20 -10 0
-64 -9 -19 -36 -54 -61 -10 -20 -37 -55 -62 -1 -3 -6 -8 -13 -16 -18 -33 -35 -53 0
-10 -20 -37 -55 -62 -64 -1 -3 -6 -8 -9 -13 -16 -18 -19 -33 -35 -36 -53 -54 -61 0
-64 -62 -55 -37 -20 -10 -61 -54 -36 -19 -9 -53 -35 -18 -8 -33 -16 -6 -13 -3 -1 0
-1 -3 -6 -8 -9 -11 -13 -16 -18 -19 -21 -33 -35 -36 -38 -53 -54 -56 -61 -63 -65 0
-11 -9 -8 -6 -3 -1 -65 -63 -56 -38 -21 -61 -54 -36 -19 -53 -35 -18 -33 -16 -13 0
-1 -21 -19 -18 -16 -13 -11 -9 -8 -6 -3 -65 -63 -56 -38 -61 -54 -36 -53 -35 -33 0
-13 -16 -18 -19 -21 -1 -33 -35 -36 -38 -3 -53 -54 -56 -6 -61 -63 -8 -65 -9 -11 0
-13 -3 -38 -36 -35 -33 -1 -21 -19 -18 -16 -11 -9 -8 -6 -65 -63 -56 -61 -54 -53 0
-33 -35 -36 -38 -3 -13 -53 -54 -56 -6 -16 -61 -63 -8 -18 -65 -9 -19 -11 -21 -1 0
-33 -16 -6 -56 -54 -53 -13 -3 -38 -36 -35 -1 -21 -19 -18 -11 -9 -8 -65 -63 -61 0
-53 -54 -56 -6 -16 -33 -61 -63 -8 -18 -35 -65 -9 -19 -36 -11 -21 -38 -1 -3 -13 0
-53 -35 -18 -8 -63 -61 -33 -16 -6 -56 -54 -13 -3 -38 -36 -1 -21 -19 -11 -9 -65 0
-61 -63 -8 -18 -35 -53 -65 -9 -19 -36 -54 -11 -21 -38 -56 -1 -3 -6 -13 -16 -33 0
-61 -54 -36 -19 -9 -65 -53 -35 -18 -8 -63 -33 -16 -6 -56 -13 -3 -38 -1 -21 -11 0
-65 -9 -19 -36 -54 -61 -11 -21 -38 -56 -63 -1 -3 -6 -8 -13 -16 -18 -33 -35 -53 0
-11 -21 -38 -56 -63 -65 -1 -3 -6 -8 -9 -13 -16 -18 -19 -33 -35 -36 -53 -54 -61 0
-65 -63 -56 -38 -21 -11 -61 -54 -36 -19 -9 -53 -35 -18 -8 -33 -16 -6 -13 -3 -1 0
-1 -3 -6 -8 -10 -11 -13 -16 -18 -20 -21 -33 -35 -37 -38 -53 -55 -56 -62 -63 -66 0
-11 -10 -8 -6 -3 -1 -66 -63 -56 -38 -21 -62 -55 -37 -20 -53 -35 -18 -33 -16 -13 0
-1 -21 -20 -18 -16 -13 -11 -10 -8 -6 -3 -66 -63 -56 -38 -62 -55 -37 -53 -35 -33 0
-13 -16 -18 -20 -21 -1 -33 -35 -37 -38 -3 -53 -55 -56 -6 -62 -63 -8 -66 -10 -11 0
-13 -3 -38 -37 -35 -33 -1 -21 -20 -18 -16 -11 -10 -8 -6 -66 -63 -56 -62 -55 -53 0
-33 -35 -37 -38 -3 -13 -53 -55 -56 -6 -16 -62 -63 -8 -18 -66 -10 -20 -11 -21 -1 0
-33 -16 -6 -56 -55 -53 -13 -3 -38 -37 -35 -1 -21 -20 -18 -11 -10 -8 -66 -63 -62 0
-53 -55 -56 -6 -16 -33 -62 -63 -8 -18 -35 -66 -10 -20 -37 -11 -21 -38 -1 -3 -13 0
-53 -35 -18 -8 -63 -62 -33 -16 -6 -56 -55 -13 -3 -38 -37 -1 -21 -20 -11 -10 -66 0
-62 -63 -8 -18 -35 -53 -66 -10 -20 -37 -55 -11 -21 -38 -56 -1 -3 -6 -13 -16 -33 0
-62 -55 -37 -20 -10 -66 -53 -35 -18 -8 -63 -33 -16 -6 -56 -13 -3 -38 -1 -21 -11 0
-66 -10 -20 -37 -55 -62 -11 -21 -38 -56 -63 -1 -3 -6 -8 -13 -16 -18 -33 -35 -53 0
-11 -21 -38 -56 -63 -66 -1 -3 -6 -8 -10 -13 -16 -18 -20 -33 -35 -37 -53 -55 -62 0
-66 -63 -56 -38 -21 -11 -62 -55 -37 -20 -10 -53 -35 -18 -8 -33 -16 -6 -13 -3 -1 0
-1 -3 -6 -9 -10 -11 -13 -16 -19 -20 -21 -33 -36 -37 -38 -54 -55 -56 -64 -65 -66 0
-11 -10 -9 -6 -3 -1 -66 -65 -56 -38 -21 -64 -55 -37 -20 -54 -36 -19 -33 -16 -13 0
-1 -21 -20 -19 -16 -13 -11 -10 -9 -6 -3 -66 -65 -56 -38 -64 -55 -37 -54 -36 -33 0
-13 -16 -19 -20 -21 -1 -33 -36 -37 -38 -3 -54 -55 -56 -6 -64 -65 -9 -66 -10 -11 0
-13 -3 -38 -37 -36 -33 -1 -21 -20 -19 -16 -11 -10 -9 -6 -66 -65 -56 -64 -55 -54 0
-33 -36 -37 -38 -3 -13 -54 -55 -56 -6 -16 -64 -65 -9 -19 -66 -10 -20 -11 -21 -1 0
-33 -16 -6 -56 -55 -54 -13 -3 -38 -37 -36 -1 -21 -20 -19 -11 -10 -9 -66 -65 -64 0
-54 -55 -56 -6 -16 -33 -64 -65 -9 -19 -36 -66 -10 -20 -37 -11 -21 -38 -1 -3 -13 0
-54 -36 -19 -9 -65 -64 -33 -16 -6 -56 -55 -13 -3 -38 -37 -1 -21 -20 -11 -10 -66 0
-64 -65 -9 -19 -36 -54 -66 -10 -20 -37 -55 -11 -21 -38 -56 -1 -3 -6 -13 -16 -33 0
-64 -55 -37 -20 -10 -66 -54 -36 -19 -9 -65 -33 -16 -6 -56 -13 -3 -38 -1 -21 -11 0
-66 -10 -20 -37 -55 -64 -11 -21 -38 -56 -65 -1 -3 -6 -9 -13 -16 -19 -33 -36 -54 0
-11 -21 -38 -56 -65 -66 -1 -3 -6 -9 -10 -13 -16 -19 -20 -33 -36 -37 -54 -55 -64 0
-66 -65 -56 -38 -21 -11 -64 -55 -37 -20 -10 -54 -36 -19 -9 -33 -16 -6 -13 -3 -1 0
-1 -3 -7 -8 -9 -10 -13 -17 -18 -19 -20 -34 -35 -36 -37 -57 -58 -59 -61 -62 -64 0
-10 -9 -8 -7 -3 -1 -64 -62 -59 -37 -20 -61 -58 -36 -19 -57 -35 -18 -34 -17 -13 0
-1 -20 -19 -18 -17 -13 -10 -9 -8 -7 -3 -64 -62 -59 -37 -61 -58 -36 -57 -35 -34 0
-13 -17 -18 -19 -20 -1 -34 -35 -36 -37 -3 -57 -58 -59 -7 -61 -62 -8 -64 -9 -10 0
-13 -3 -37 -36 -35 -34 -1 -20 -19 -18 -17 -10 -9 -8 -7 -64 -62 -59 -61 -58 -57 0
-34 -35 -36 -37 -3 -13 -57 -58 -59 -7 -17 -61 -62 -8 -18 -64 -9 -19 -10 -20 -1 0
-34 -17 -7 -59 -58 -57 -13 -3 -37 -36 -35 -1 -20 -19 -18 -10 -9 -8 -64 -62 -61 0
-57 -58 -59 -7 -17 -34 -61 -62 -8 -18 -35 -64 -9 -19 -36 -10 -20 -37 -1 -3 -13 0
-57 -35 -18 -8 -62 -61 -34 -17 -7 -59 -58 -13 -3 -37 -36 -1 -20 -19 -10 -9 -64 0
-61 -62 -8 -18 -35 -57 -64 -9 -19 -36 -58 -10 -20 -37 -59 -1 -3 -7 -13 -17 -34 0
-61 -58 -36 -19 -9 -64 -57 -35 -18 -8 -62 -34 -17 -7 -59 -13 -3 -37 -1 -20 -10 0
-64 -9 -19 -36 -58 -61 -10 -20 -37 -59 -62 -1 -3 -7 -8 -13 -17 -18 -34 -35 -57 0
-10 -20 -37 -59 -62 -64 -1 -3 -7 -8 -9 -13 -17 -18 -19 -34 -35 -36 -57 -58 -61 0
-64 -62 -59 -37 -20 -10 -61 -58 -36 -19 -9 -57 -35 -18 -8 -34 -17 -7 -13 -3 -1 0
-1 -3 -7 -8 -9 -11 -13 -17 -18 -19 -21 -34 -35 -36 -38 -57 -58 -60 -61 -63 -65 0
-11 -9 -8 -7 -3 -1 -65 -63 -60 -38 -21 -61 -58 -36 -19 -57 -35 -18 -34 -17 -13 0
-1 -21 -19 -18 -17 -13 -11 -9 -8 -7 -3 -65 -63 -60 -38 -61 -58 -36 -57 -35 -34 0
-13 -17 -18 -19 -21 -1 -34 -35 -36 -38 -3 -57 -58 -60 -7 -61 -63 -8 -65 -9 -11 0
-13 -3 -38 -36 -35 -34 -1 -21 -19 -18 -17 -11 -9 -8 -7 -65 -63 -60 -61 -58 -57 0
-34 -35 -36 -38 -3 -13 -57 -58 -60 -7 -17 -61 -63 -8 -18 -65 -9 -19 -11 -21 -1 0
-34 -17 -7 -60 -58 -57 -13 -3 -38 -36 -35 -1 -21 -19 -18 -11 -9 -8 -65 -63 -61 0
-57 -58 -60 -7 -17 -34 -61 -63 -8 -18 -35 -65 -9 -19 -36 -11 -21 -38 -1 -3 -13 0
-57 -35 -18 -8 -63 -61 -34 -17 -7 -60 -58 -13 -3 -38 -36 -1 -21 -19 -11 -9 -65 0
-61 -63 -8 -18 -35 -57 -65 -9 -19 -36 -58 -11 -21 -38 -60 -1 -3 -7 -13 -17 -34 0
-61 -58 -36 -19 -9 -65 -57 -35 -18 -8 -63 -34 -17 -7 -60 -13 -3 -38 -1 -21 -11 0
-65 -9 -19 -36 -58 -61 -11 -21 -38 -60 -63 -1 -3 -7 -8 -13 -17 -18 -34 -35 -57 0
-11 -21 -38 -60 -63 -65 -1 -3 -7 -8 -9 -13 -17 -18 -19 -34 -35 -36 -57 -58 -61 0
-65 -63 -60 -38 -21 -11 -61 -58 -36 -19 -9 -57 -35 -18 -8 -34 -17 -7 -13 -3 -1 0
-1 -3 -7 -8 -10 -11 -13 -17 -18 -20 -21 -34 -35 -37 -38 -57 -59 -60 -62 -63 -66 0
-11 -10 -8 -7 -3 -1 -66 -63 -60 -38 -21 -62 -59 -37 -20 -57 -35 -18 -34 -17 -13 0
-1 -21 -20 -18 -17 -13 -11 -10 -8 -7 -3 -66 -63 -60 -38 -62 -59 -37 -57 -35 -34 0
-13 -17 -18 -20 -21 -1 -34 -35 -37 -38 -3 -57 -59 -60 -7 -62 -63 -8 -66 -10 -11 0
-13 -3 -38 -37 -35 -34 -1 -21 -20 -18 -17 -11 -10 -8 -7 -66 -63 -60 -62 -59 -57 0
-34 -35 -37 -38 -3 -13 -57 -59 -60 -7 -17 -62 -63 -8 -18 -66 -10 -20 -11 -21 -1 0
-34 -17 -7 -60 -59 -57 -13 -3 -38 -37 -35 -1 -21 -20 -18 -11 -10 -8 -66 -63 -62 0
-57 -59 -60 -7 -17 -34 -62 -63 -8 -18 -35 -66 -10 -20 -37 -11 -21 -38 -1 -3 -13 0
-57 -35 -18 -8 -63 -62 -34 -17 -7 -60 -59 -13 -3 -38 -37 -1 -21 -20 -11 -10 -66 0
-62 -63 -8 -18 -35 -57 -66 -10 -20 -37 -59 -11 -21 -38 -60 -1 -3 -7 -13 -17 -34 0
-62 -59 -37 -20 -10 -66 -57 -35 -18 -8 -63 -34 -17 -7 -60 -13 -3 -38 -1 -21 -11 0
-66 -10 -20 -37 -59 -62 -11 -21 -38 -60 -63 -1 -3 -7 -8 -13 -17 -18 -34 -35 -57 0
-11 -21 -38 -60 -63 -66 -1 -3 -7 -8 -10 -13 -17 -18 -20 -34 -35 -37 -57 -59 -62 0
-66 -63 -60 -38 -21 -11 -62 -59 -37 -20 -10 -57 -35 -18 -8 -34 -17 -7 -13 -3 -1 0
-1 -3 -7 -9 -10 -11 -13 -17 -19 -20 -21 -34 -36 -37 -38 -58 -59 -60 -64 -65 -66 0
-11 -10 -9 -7 -3 -1 -66 -65 -60 -38 -21 -64 -59 -37 -20 -58 -36 -19 -34 -17 -13 0
-1 -21 -20 -19 -17 -13 -11 -10 -9 -7 -3 -66 -65 -60 -38 -64 -59 -37 -58 -36 -34 0
-13 -17 -19 -20 -21 -1 -34 -36 -37 -38 -3 -58 -59 -60 -7 -64 -65 -9 -66 -10 -11 0
-13 -3 -38 -37 -36 -34 -1 -21 -20 -19 -17 -11 -10 -9 -7 -66 -65 -60 -64 -59 -58 0
-34 -36 -37 -38 -3 -13 -58 -59 -60 -7 -17 -64 -65 -9 -19 -66 -10 -20 -11 -21 -1 0
-34 -17 -7 -60 -59 -58 -13 -3 -38 -37 -36 -1 -21 -20 -19 -11 -10 -9 -66 -65 -64 0
-58 -59 -60 -7 -17 -34 -64 -65 -9 -19 -36 -66 -10 -20 -37 -11 -21 -38 -1 -3 -13 0
-58 -36 -19 -9 -65 -64 -34 -17 -7 -60 -59 -13 -3 -38 -37 -1 -21 -20 -11 -10 -66 0
-64 -65 -9 -19 -36 -58 -66 -10 -20 -37 -59 -11 -21 -38 -60 -1 -3 -7 -13 -17 -34 0
-64 -59 -37 -20 -10 -66 -58 -36 -19 -9 -65 -34 -17 -7 -60 -13 -3 -38 -1 -21 -11 0
-66 -10 -20 -37 -59 -64 -11 -21 -38 -60 -65 -1 -3 -7 -9 -13 -17 -19 -34 -36 -58 0
-11 -21 -38 -60 -65 -66 -1 -3 -7 -9 -10 -13 -17 -19 -20 -34 -36 -37 -58 -59 -64 0
-66 -65 -60 -38 -21 -11 -64 -59 -37 -20 -10 -58 -36 -19 -9 -34 -17 -7 -13 -3 -1 0
-1 -3 -8 -9 -10 -11 -13 -18 -19 -20 -21 -35 -36 -37 -38 -61 -62 -63 -64 -65 -66 0
-11 -10 -9 -8 -3 -1 -66 -65 -63 -38 -21 -64 -62 -37 -20 -61 -36 -19 -35 -18 -13 0
-1 -21 -20 -19 -18 -13 -11 -10 -9 -8 -3 -66 -65 -63 -38 -64 -62 -37 -61 -36 -35 0
-13 -18 -19 -20 -21 -1 -35 -36 -37 -38 -3 -61 -62 -63 -8 -64 -65 -9 -66 -10 -11 0
-13 -3 -38 -37 -36 -35 -1 -21 -20 -19 -18 -11 -10 -9 -8 -66 -65 -63 -64 -62 -61 0
-35 -36 -37 -38 -3 -13 -61 -62 -63 -8 -18 -64 -65 -9 -19 -66 -10 -20 -11 -21 -1 0
-35 -18 -8 -63 -62 -61 -13 -3 -38 -37 -36 -1 -21 -20 -19 -11 -10 -9 -66 -65 -64 0
-61 -62 -63 -8 -18 -35 -64 -65 -9 -19 -36 -66 -10 -20 -37 -11 -21 -38 -1 -3 -13 0
-61 -36 -19 -9 -65 -64 -35 -18 -8 -63 -62 -13 -3 -38 -37 -1 -21 -20 -11 -10 -66 0
-64 -65 -9 -19 -36 -61 -66 -10 -20 -37 -62 -11 -21 -38 -63 -1 -3 -8 -13 -18 -35 0
-64 -62 -37 -20 -10 -66 -61 -36 -19 -9 -65 -35 -18 -8 -63 -13 -3 -38 -1 -21 -11 0
-66 -10 -20 -37 -62 -64 -11 -21 -38 -63 -65 -1 -3 -8 -9 -13 -18 -19 -35 -36 -61 0
-11 -21 -38 -63 -65 -66 -1 -3 -8 -9 -10 -13 -18 -19 -20 -35 -36 -37 -61 -62 -64 0
-66 -65 -63 -38 -21 -11 -64 -62 -37 -20 -10 -61 -36 -19 -9 -35 -18 -8 -13 -3 -1 0
-1 -4 -5 -6 -7 -8 -14 -15 -16 -17 -18 -39 -40 -41 -42 -46 -47 -48 -52 -53 -57 0
-8 -7 -6 -5 -4 -1 -57 -53 -48 -42 -18 -52 -47 -41 -17 -46 -40 -16 -39 -15 -14 0
-1 -18 -17 -16 -15 -14 -8 -7 -6 -5 -4 -57 -53 -48 -42 -52 -47 -41 -46 -40 -39 0
-14 -15 -16 -17 -18 -1 -39 -40 -41 -42 -4 -46 -47 -48 -5 -52 -53 -6 -57 -7 -8 0
-14 -4 -42 -41 -40 -39 -1 -18 -17 -16 -15 -8 -7 -6 -5 -57 -53 -48 -52 -47 -46 0
-39 -40 -41 -42 -4 -14 -46 -47 -48 -5 -15 -52 -53 -6 -16 -57 -7 -17 -8 -18 -1 0
-39 -15 -5 -48 -47 -46 -14 -4 -42 -41 -40 -1 -18 -17 -16 -8 -7 -6 -57 -53 -52 0
-46 -47 -48 -5 -15 -39 -52 -53 -6 -16 -40 -57 -7 -17 -41 -8 -18 -42 -1 -4 -14 0
-46 -40 -16 -6 -53 -52 -39 -15 -5 -48 -47 -14 -4 -42 -41 -1 -18 -17 -8 -7 -57 0
-52 -53 -6 -16 -40 -46 -57 -7 -17 -41 -47 -8 -18 -42 -48 -1 -4 -5 -14 -15 -39 0
-52 -47 -41 -17 -7 -57 -46 -40 -16 -6 -53 -39 -15 -5 -48 -14 -4 -42 -1 -18 -8 0
-57 -7 -17 -41 -47 -52 -8 -18 -42 -48 -53 -1 -4 -5 -6 -14 -15 -16 -39 -40 -46 0
-8 -18 -42 -48 -53 -57 -1 -4 -5 -6 -7 -14 -15 -16 -17 -39 -40 -41 -46 -47 -52 0
-57 -53 -48 -42 -18 -8 -52 -47 -41 -17 -7 -46 -40 -16 -6 -39 -15 -5 -14 -4 -1 0
-1 -4 -5 -6 -7 -9 -14 -15 -16 -17 -19 -39 -40 -41 -43 -46 -47 -49 -52 -54 -58 0
-9 -7 -6 -5 -4 -1 -58 -54 -49 -43 -19 -52 -47 -41 -17 -46 -40 -16 -39 -15 -14 0
-1 -19 -17 -16 -15 -14 -9 -7 -6 -5 -4 -58 -54 -49 -43 -52 -47 -41 -46 -40 -39 0
-14 -15 -16 -17 -19 -1 -39 -40 -41 -43 -4 -46 -47 -49 -5 -52 -54 -6 -58 -7 -9 0
-14 -4 -43 -41 -40 -39 -1 -19 -17 -16 -15 -9 -7 -6 -5 -58 -54 -49 -52 -47 -46 0
-39 -40 -41 -43 -4 -14 -46 -47 -49 -5 -15 -52 -54 -6 -16 -58 -7 -17 -9 -19 -1 0
-39 -15 -5 -49 -47 -46 -14 -4 -43 -41 -40 -1 -19 -17 -16 -9 -7 -6 -58 -54 -52 0
-46 -47 -49 -5 -15 -39 -52 -54 -6 -16 -40 -58 -7 -17 -41 -9 -19 -43 -1 -4 -14 0
-46 -40 -16 -6 -54 -52 -39 -15 -5 -49 -47 -14 -4 -43 -41 -1 -19 -17 -9 -7 -58 0
-52 -54 -6 -16 -40 -46 -58 -7 -17 -41 -47 -9 -19 -43 -49 -1 -4 -5 -14 -15 -39 0
-52 -47 -41 -17 -7 -58 -46 -40 -16 -6 -54 -39 -15 -5 -49 -14 -4 -43 -1 -19 -9 0
-58 -7 -17 -41 -47 -52 -9 -19 -43 -49 -54 -1 -4 -5 -6 -14 -15 -16 -39 -40 -46 0
-9 -19 -43 -49 -54 -58 -1 -4 -5 -6 -7 -14 -15 -16 -17 -39 -40 -41 -46 -47 -52 0
-58 -54 -49 -43 -19 -9 -52 -47 -41 -17 -7 -46 -40 -16 -6 -39 -15 -5 -14 -4 -1 0
-1 -4 -5 -6 -7 -10 -14 -15 -16 -17 -20 -39 -40 -41 -44 -46 -47 -50 -52 -55 -59 0
-10 -7 -6 -5 -4 -1 -59 -55 -50 -44 -20 -52 -47 -41 -17 -46 -40 -16 -39 -15 -14 0
-1 -20 -17 -16 -15 -14 -10 -7 -6 -5 -4 -59 -55 -50 -44 -52 -47 -41 -46 -40 -39 0
-14 -15 -16 -17 -20 -1 -39 -40 -41 -44 -4 -46 -47 -50 -5 -52 -55 -6 -59 -7 -10 0
-14 -4 -44 -41 -40 -39 -1 -20 -17 -16 -15 -10 -7 -6 -5 -59 -55 -50 -52 -47 -46 0
-39 -40 -41 -44 -4 -14 -46 -47 -50 -5 -15 -52 -55 -6 -16 -59 -7 -17 -10 -20 -1 0
-39 -15 -5 -50 -47 -46 -14 -4 -44 -41 -40 -1 -20 -17 -16 -10 -7 -6 -59 -55 -52 0
-46 -47 -50 -5 -15 -39 -52 -55 -6 -16 -40 -59 -7 -17 -41 -10 -20 -44 -1 -4 -14 0
-46 -40 -16 -6 -55 -52 -39 -15 -5 -50 -47 -14 -4 -44 -41 -1 -20 -17 -10 -7 -59 0
-52 -55 -6 -16 -40 -46 -59 -7 -17 -41 -47 -10 -20 -44 -50 -1 -4 -5 -14 -15 -39 0
-52 -47 -41 -17 -7 -59 -46 -40 -16 -6 -55 -39 -15 -5 -50 -14 -4 -44 -1 -20 -10 0
-59 -7 -17 -41 -47 -52 -10 -20 -44 -50 -55 -1 -4 -5 -6 -14 -15 -16 -39 -40 -46 0
-10 -20 -44 -50 -55 -59 -1 -4 -5 -6 -7 -14 -15 -16 -17 -39 -40 -41 -46 -47 -52 0
-59 -55 -50 -44 -20 -10 -52 -47 -41 -17 -7 -46 -40 -16 -6 -39 -15 -5 -14 -4 -1 0
-1 -4 -5 -6 -7 -11 -14 -15 -16 -17 -21 -39 -40 -41 -45 -46 -47 -51 -52 -56 -60 0
-11 -7 -6 -5 -4 -1 -60 -56 -51 -45 -21 -52 -47 -41 -17 -46 -40 -16 -39 -15 -14 0
-1 -21 -17 -16 -15 -14 -11 -7 -6 -5 -4 -60 -56 -51 -45 -52 -47 -41 -46 -40 -39 0
-14 -15 -16 -17 -21 -1 -39 -40 -41 -45 -4 -46 -47 -51 -5 -52 -56 -6 -60 -7 -11 0
-14 -4 -45 -41 -40 -39 -1 -21 -17 -16 -15 -11 -7 -6 -5 -60 -56 -51 -52 -47 -46 0
-39 -40 -41 -45 -4 -14 -46 -47 -51 -5 -15 -52 -56 -6 -16 -60 -7 -17 -11 -21 -1 0
-39 -15 -5 -51 -47 -46 -14 -4 -45 -41 -40 -1 -21 -17 -16 -11 -7 -6 -60 -56 -52 0
-46 -47 -51 -5 -15 -39 -52 -56 -6 -16 -40 -60 -7 -17 -41 -11 -21 -45 -1 -4 -14 0
-46 -40 -16 -6 -56 -52 -39 -15 -5 -51 -47 -14 -4 -45 -41 -1 -21 -17 -11 -7 -60 0
-52 -56 -6 -16 -40 -46 -60 -7 -17 -41 -47 -11 -21 -45 -51 -1 -4 -5 -14 -15 -39 0
-52 -47 -41 -17 -7 -60 -46 -40 -16 -6 -56 -39 -15 -5 -51 -14 -4 -45 -1 -21 -11 0
-60 -7 -17 -41 -47 -52 -11 -21 -45 -51 -56 -1 -4 -5 -6 -14 -15 -16 -39 -40 -46 0
-11 -21 -45 -51 -56 -60 -1 -4 -5 -6 -7 -14 -15 -16 -17 -39 -40 -41 -46 -47 -52 0
-60 -56 -51 -45 -21 -11 -52 -47 -41 -17 -7 -46 -40 -16 -6 -39 -15 -5 -14 -4 -1 0
-1 -4 -5 -6 -8 -9 -14 -15 -16 -18 -19 -39 -40 -42 -43 -46 -48 -49 -53 -54 -61 0
-9 -8 -6 -5 -4 -1 -61 -54 -49 -43 -19 -53 -48 -42 -18 -46 -40 -16 -39 -15 -14 0
-1 -19 -18 -16 -15 -14 -9 -8 -6 -5 -4 -61 -54 -49 -43 -53 -48 -42 -46 -40 -39 0
-14 -15 -16 -18 -19 -1 -39 -40 -42 -43 -4 -46 -48 -49 -5 -53 -54 -6 -61 -8 -9 0
-14 -4 -43 -42 -40 -39 -1 -19 -18 -16 -15 -9 -8 -6 -5 -61 -54 -49 -53 -48 -46 0
-39 -40 -42 -43 -4 -14 -46 -48 -49 -5 -15 -53 -54 -6 -16 -61 -8 -18 -9 -19 -1 0
-39 -15 -5 -49 -48 -46 -14 -4 -43 -42 -40 -1 -19 -18 -16 -9 -8 -6 -61 -54 -53 0
-46 -48 -49 -5 -15 -39 -53 -54 -6 -16 -40 -61 -8 -18 -42 -9 -19 -43 -1 -4 -14 0
-46 -40 -16 -6 -54 -53 -39 -15 -5 -49 -48 -14 -4 -43 -42 -1 -19 -18 -9 -8 -61 0
-53 -54 -6 -16 -40 -46 -61 -8 -18 -42 -48 -9 -19 -43 -49 -1 -4 -5 -14 -15 -39 0
-53 -48 -42 -18 -8 -61 -46 -40 -16 -6 -54 -39 -15 -5 -49 -14 -4 -43 -1 -19 -9 0
-61 -8 -18 -42 -48 -53 -9 -19 -43 -49 -54 -1 -4 -5 -6 -14 -15 -16 -39 -40 -46 0
-9 -19 -43 -49 -54 -61 -1 -4 -5 -6 -8 -14 -15 -16 -18 -39 -40 -42 -46 -48 -53 0
-61 -54 -49 -43 -19 -9 -53 -48 -42 -18 -8 -46 -40 -16 -6 -39 -15 -5 -14 -4 -1 0
-1 -4 -5 -6 -8 -10 -14 -15 -16 -18 -20 -39 -40 -42 -44 -46 -48 -50 -53 -55 -62 0
-10 -8 -6 -5 -4 -1 -62 -55 -50 -44 -20 -53 -48 -42 -18 -46 -40 -16 -39 -15 -14 0
-1 -20 -18 -16 -15 -14 -10 -8 -6 -5 -4 -62 -55 -50 -44 -53 -48 -42 -46 -40 -39 0
-14 -15 -16 -18 -20 -1 -39 -40 -42 -44 -4 -46 -48 -50 -5 -53 -55 -6 -62 -8 -10 0
-14 -4 -44 -42 -40 -39 -1 -20 -18 -16 -15 -10 -8 -6 -5 -62 -55 -50 -53 -48 -46 0
-39 -40 -42 -44 -4 -14 -46 -48 -50 -5 -15 -53 -55 -6 -16 -62 -8 -18 -10 -20 -1 0
-39 -15 -5 -50 -48 -46 -14 -4 -44 -42 -40 -1 -20 -18 -16 -10 -8 -6 -62 -55 -53 0
-46 -48 -50 -5 -15 -39 -53 -55 -6 -16 -40 -62 -8 -18 -42 -10 -20 -44 -1 -4 -14 0
-46 -40 -16 -6 -55 -53 -39 -15 -5 -50 -48 -14 -4 -44 -42 -1 -20 -18 -10 -8 -62 0
-53 -55 -6 -16 -40 -46 -62 -8 -18 -42 -48 -10 -20 -44 -50 -1 -4 -5 -14 -15 -39 0
-53 -48 -42 -18 -8 -62 -46 -40 -16 -6 -55 -39 -15 -5 -50 -14 -4 -44 -1 -20 -10 0
-62 -8 -18 -42 -48 -53 -10 -20 -44 -50 -55 -1 -4 -5 -6 -14 -15 -16 -39 -40 -46 0
-10 -20 -44 -50 -55 -62 -1 -4 -5 -6 -8 -14 -15 -16 -18 -39 -40 -42 -46 -48 -53 0
-62 -55 -50 -44 -20 -10 -53 -48 -42 -18 -8 -46 -40 -16 -6 -39 -15 -5 -14 -4 -1 0
-1 -4 -5 -6 -8 -11 -14 -15 -16 -18 -21 -39 -40 -42 -45 -46 -48 -51 -53 -56 -63 0
-11 -8 -6 -5 -4 -1 -63 -56 -51 -45 -21 -53 -48 -42 -18 -46 -40 -16 -39 -15 -14 0
-1 -21 -18 -16 -15 -14 -11 -8 -6 -5 -4 -63 -56 -51 -45 -53 -48 -42 -46 -40 -39 0
-14 -15 -16 -18 -21 -1 -39 -40 -42 -45 -4 -46 -48 -51 -5 -53 -56 -6 -63 -8 -11 0
-14 -4 -45 -42 -40 -39 -1 -21 -18 -16 -15 -11 -8 -6 -5 -63 -56 -51 -53 -48 -46 0
-39 -40 -42 -45 -4 -14 -46 -48 -51 -5 -15 -53 -56 -6 -16 -63 -8 -18 -11 -21 -1 0
-39 -15 -5 -51 -48 -46 -14 -4 -45 -42 -40 -1 -21 -18 -16 -11 -8 -6 -63 -56 -53 0
-46 -48 -51 -5 -15 -39 -53 -56 -6 -16 -40 -63 -8 -18 -42 -11 -21 -45 -1 -4 -14 0
-46 -40 -16 -6 -56 -53 -39 -15 -5 -51 -48 -14 -4 -45 -42 -1 -21 -18 -11 -8 -63 0
-53 -56 -6 -16 -40 -46 -63 -8 -18 -42 -48 -11 -21 -45 -51 -1 -4 -5 -14 -15 -39 0
-53 -48 -42 -18 -8 -63 -46 -40 -16 -6 -56 -39 -15 -5 -51 -14 -4 -45 -1 -21 -11 0
-63 -8 -18 -42 -48 -53 -11 -21 -45 -51 -56 -1 -4 -5 -6 -14 -15 -16 -39 -40 -46 0
-11 -21 -45 -51 -56 -63 -1 -4 -5 -6 -8 -14 -15 -16 -18 -39 -40 -42 -46 -48 -53 0
-63 -56 -51 -45 -21 -11 -53 -48 -42 -18 -8 -46 -40 -16 -6 -39 -15 -5 -14 -4 -1 0
-1 -4 -5 -6 -9 -10 -14 -15 -16 -19 -20 -39 -40 -43 -44 -46 -49 -50 -54 -55 -64 0
-10 -9 -6 -5 -4 -1 -64 -55 -50 -44 -20 -54 -49 -43 -19 -46 -40 -16 -39 -15 -14 0
-1 -20 -19 -16 -15 -14 -10 -9 -6 -5 -4 -64 -55 -50 -44 -54 -49 -43 -46 -40 -39 0
-14 -15 -16 -19 -20 -1 -39 -40 -43 -44 -4 -46 -49 -50 -5 -54 -55 -6 -64 -9 -10 0
-14 -4 -44 -43 -40 -39 -1 -20 -19 -16 -15 -10 -9 -6 -5 -64 -55 -50 -54 -49 -46 0
-39 -40 -43 -44 -4 -14 -46 -49 -50 -5 -15 -54 -55 -6 -16 -64 -9 -19 -10 -20 -1 0
-39 -15 -5 -50 -49 -46 -14 -4 -44 -43 -40 -1 -20 -19 -16 -10 -9 -6 -64 -55 -54 0
-46 -49 -50 -5 -15 -39 -54 -55 -6 -16 -40 -64 -9 -19 -43 -10 -20 -44 -1 -4 -14 0
-46 -40 -16 -6 -55 -54 -39 -15 -5 -50 -49 -14 -4 -44 -43 -1 -20 -19 -10 -9 -64 0
-54 -55 -6 -16 -40 -46 -64 -9 -19 -43 -49 -10 -20 -44 -50 -1 -4 -5 -14 -15 -39 0
-54 -49 -43 -19 -9 -64 -46 -40 -16 -6 -55 -39 -15 -5 -50 -14 -4 -44 -1 -20 -10 0
-64 -9 -19 -43 -49 -54 -10 -20 -44 -50 -55 -1 -4 -5 -6 -14 -15 -16 -39 -40 -46 0
-10 -20 -44 -50 -55 -64 -1 -4 -5 -6 -9 -14 -15 -16 -19 -39 -40 -43 -46 -49 -54 0
-64 -55 -50 -44 -20 -10 -54 -49 -43 -19 -9 -46 -40 -16 -6 -39 -15 -5 -14 -4 -1 0
-1 -4 -5 -6 -9 -11 -14 -15 -16 -19 -21 -39 -40 -43 -45 -46 -49 -51 -54 -56 -65 0
-11 -9 -6 -5 -4 -1 -65 -56 -51 -45 -21 -54 -49 -43 -19 -46 -40 -16 -39 -15 -14 0
-1 -21 -19 -16 -15 -14 -11 -9 -6 -5 -4 -65 -56 -51 -45 -54 -49 -43 -46 -40 -39 0
-14 -15 -16 -19 -21 -1 -39 -40 -43 -45 -4 -46 -49 -51 -5 -54 -56 -6 -65 -9 -11 0
-14 -4 -45 -43 -40 -39 -1 -21 -19 -16 -15 -11 -9 -6 -5 -65 -56 -51 -54 -49 -46 0
-39 -40 -43 -45 -4 -14 -46 -49 -51 -5 -15 -54 -56 -6 -16 -65 -9 -19 -11 -21 -1 0
-39 -15 -5 -51 -49 -46 -14 -4 -45 -43 -40 -1 -21 -19 -16 -11 -9 -6 -65 -56 -54 0
-46 -49 -51 -5 -15 -39 -54 -56 -6 -16 -40 -65 -9 -19 -43 -11 -21 -45 -1 -4 -14 0
-46 -40 -16 -6 -56 -54 -39 -15 -5 -51 -49 -14 -4 -45 -43 -1 -21 -19 -11 -9 -65 0
-54 -56 -6 -16 -40 -46 -65 -9 -19 -43 -49 -11 -21 -45 -51 -1 -4 -5 -14 -15 -39 0
-54 -49 -43 -19 -9 -65 -46 -40 -16 -6 -56 -39 -15 -5 -51 -14 -4 -45 -1 -21 -11 0
-65 -9 -19 -43 -49 -54 -11 -21 -45 -51 -56 -1 -4 -5 -6 -14 -15 -16 -39 -40 -46 0
-11 -21 -45 -51 -56 -65 -1 -4 -5 -6 -9 -14 -15 -16 -19 -39 -40 -43 -46 -49 -54 0
-65 -56 -51 -45 -21 -11 -54 -49 -43 -19 -9 -46 -40 -16 -6 -39 -15 -5 -14 -4 -1 0
-1 -4 -5 -6 -10 -11 -14 -15 -16 -20 -21 -39 -40 -44 -45 -46 -50 -51 -55 -56 -66 0
-11 -10 -6 -5 -4 -1 -66 -56 -51 -45 -21 -55 -50 -44 -20 -46 -40 -16 -39 -15 -14 0
-1 -21 -20 -16 -15 -14 -11 -10 -6 -5 -4 -66 -56 -51 -45 -55 -50 -44 -46 -40 -39 0
-14 -15 -16 -20 -21 -1 -39 -40 -44 -45 -4 -46 -50 -51 -5 -55 -56 -6 -66 -10 -11 0
-14 -4 -45 -44 -40 -39 -1 -21 -20 -16 -15 -11 -10 -6 -5 -66 -56 -51 -55 -50 -46 0
-39 -40 -44 -45 -4 -14 -46 -50 -51 -5 -15 -55 -56 -6 -16 -66 -10 -20 -11 -21 -1 0
-39 -15 -5 -51 -50 -46 -14 -4 -45 -44 -40 -1 -21 -20 -16 -11 -10 -6 -66 -56 -55 0
-46 -50 -51 -5 -15 -39 -55 -56 -6 -16 -40 -66 -10 -20 -44 -11 -21 -45 -1 -4 -14 0
-46 -40 -16 -6 -56 -55 -39 -15 -5 -51 -50 -14 -4 -45 -44 -1 -21 -20 -11 -10 -66 0
-55 -56 -6 -16 -40 -46 -66 -10 -20 -44 -50 -11 -21 -45 -51 -1 -4 -5 -14 -15 -39 0
-55 -50 -44 -20 -10 -66 -46 -40 -16 -6 -56 -39 -15 -5 -51 -14 -4 -45 -1 -21 -11 0
-66 -10 -20 -44 -50 -55 -11 -21 -45 -51 -56 -1 -4 -5 -6 -14 -15 -16 -39 -40 -46 0
-11 -21 -45 -51 -56 -66 -1 -4 -5 -6 -10 -14 -15 -16 -20 -39 -40 -44 -46 -50 -55 0
-66 -56 -51 -45 -21 -11 -55 -50 -44 -20 -10 -46 -40 -16 -6 -39 -15 -5 -14 -4 -1 0
-1 -4 -5 -7 -8 -9 -14 -15 -17 -18 -19 -39 -41 -42 -43 -47 -48 -49 -57 -58 -61 0
-9 -8 -7 -5 -4 -1 -61 -58 -49 -43 -19 -57 -48 -42 -18 -47 -41 -17 -39 -15 -14 0
-1 -19 -18 -17 -15 -14 -9 -8 -7 -5 -4 -61 -58 -49 -43 -57 -48 -42 -47 -41 -39 0
-14 -15 -17 -18 -19 -1 -39 -41 -42 -43 -4 -47 -48 -49 -5 -57 -58 -7 -61 -8 -9 0
-14 -4 -43 -42 -41 -39 -1 -19 -18 -17 -15 -9 -8 -7 -5 -61 -58 -49 -57 -48 -47 0
-39 -41 -42 -43 -4 -14 -47 -48 -49 -5 -15 -57 -58 -7 -17 -61 -8 -18 -9 -19 -1 0
-39 -15 -5 -49 -48 -47 -14 -4 -43 -42 -41 -1 -19 -18 -17 -9 -8 -7 -61 -58 -57 0
-47 -48 -49 -5 -15 -39 -57 -58 -7 -17 -41 -61 -8 -18 -42 -9 -19 -43 -1 -4 -14 0
-47 -41 -17 -7 -58 -57 -39 -15 -5 -49 -48 -14 -4 -43 -42 -1 -19 -18 -9 -8 -61 0
-57 -58 -7 -17 -41 -47 -61 -8 -18 -42 -48 -9 -19 -43 -49 -1 -4 -5 -14 -15 -39 0
-57 -48 -42 -18 -8 -61 -47 -41 -17 -7 -58 -39 -15 -5 -49 -14 -4 -43 -1 -19 -9 0
-61 -8 -18 -42 -48 -57 -9 -19 -43 -49 -58 -1 -4 -5 -7 -14 -15 -17 -39 -41 -47 0
-9 -19 -43 -49 -58 -61 -1 -4 -5 -7 -8 -14 -15 -17 -18 -39 -41 -42 -47 -48 -57 0
-61 -58 -49 -43 -19 -9 -57 -48 -42 -18 -8 -47 -41 -17 -7 -39 -15 -5 -14 -4 -1 0
-1 -4 -5 -7 -8 -10 -14 -15 -17 -18 -20 -39 -41 -42 -44 -47 -48 -50 -57 -59 -62 0
-10 -8 -7 -5 -4 -1 -62 -59 -50 -44 -20 -57 -48 -42 -18 -47 -41 -17 -39 -15 -14 0
-1 -20 -18 -17 -15 -14 -10 -8 -7 -5 -4 -62 -59 -50 -44 -57 -48 -42 -47 -41 -39 0
-14 -15 -17 -18 -20 -1 -39 -41 -42 -44 -4 -47 -48 -50 -5 -57 -59 -7 -62 -8 -10 0
-14 -4 -44 -42 -41 -39 -1 -20 -18 -17 -15 -10 -8 -7 -5 -62 -59 -50 -57 -48 -47 0
-39 -41 -42 -44 -4 -14 -47 -48 -50 -5 -15 -57 -59 -7 -17 -62 -8 -18 -10 -20 -1 0
-39 -15 -5 -50 -48 -47 -14 -4 -44 -42 -41 -1 -20 -18 -17 -10 -8 -7 -62 -59 -57 0
-47 -48 -50 -5 -15 -39 -57 -59 -7 -17 -41 -62 -8 -18 -42 -10 -20 -44 -1 -4 -14 0
-47 -41 -17 -7 -59 -57 -39 -15 -5 -50 -48 -14 -4 -44 -42 -1 -20 -18 -10 -8 -62 0
-57 -59 -7 -17 -41 -47 -62 -8 -18 -42 -48 -10 -20 -44 -50 -1 -4 -5 -14 -15 -39 0
-57 -48 -42 -18 -8 -62 -47 -41 -17 -7 -59 -39 -15 -5 -50 -14 -4 -44 -1 -20 -10 0
-62 -8 -18 -42 -48 -57 -10 -20 -44 -50 -59 -1 -4 -5 -7 -14 -15 -17 -39 -41 -47 0
-10 -20 -44 -50 -59 -62 -1 -4 -5 -7 -8 -14 -15 -17 -18 -39 -41 -42 -47 -48 -57 0
-62 -59 -50 -44 -20 -10 -57 -48 -42 -18 -8 -47 -41 -17 -7 -39 -15 -5 -14 -4 -1 0
-1 -4 -5 -7 -8 -11 -14 -15 -17 -18 -21 -39 -41 -42 -45 -47 -48 -51 -57 -60 -63 0
-11 -8 -7 -5 -4 -1 -63 -60 -51 -45 -21 -57 -48 -42 -18 -47 -41 -17 -39 -15 -14 0
-1 -21 -18 -17 -15 -14 -11 -8 -7 -5 -4 -63 -60 -51 -45 -57 -48 -42 -47 -41 -39 0
-14 -15 -17 -18 -21 -1 -39 -41 -42 -45 -4 -47 -48 -51 -5 -57 -60 -7 -63 -8 -11 0
-14 -4 -45 -42 -41 -39 -1 -21 -18 -17 -15 -11 -8 -7 -5 -63 -60 -51 -57 -48 -47 0
-39 -41 -42 -45 -4 -14 -47 -48 -51 -5 -15 -57 -60 -7 -17 -63 -8 -18 -11 -21 -1 0
-39 -15 -5 -51 -48 -47 -14 -4 -45 -42 -41 -1 -21 -18 -17 -11 -8 -7 -63 -60 -57 0
-47 -48 -51 -5 -15 -39 -57 -60 -7 -17 -41 -63 -8 -18 -42 -11 -21 -45 -1 -4 -14 0
-47 -41 -17 -7 -60 -57 -39 -15 -5 -51 -48 -14 -4 -45 -42 -1 -21 -18 -11 -8 -63 0
-57 -60 -7 -17 -41 -47 -63 -8 -18 -42 -48 -11 -21 -45 -51 -1 -4 -5 -14 -15 -39 0
-57 -48 -42 -18 -8 -63 -47 -41 -17 -7 -60 -39 -15 -5 -51 -14 -4 -45 -1 -21 -11 0
-63 -8 -18 -42 -48 -57 -11 -21 -45 -51 -60 -1 -4 -5 -7 -14 -15 -17 -39 -41 -47 0
-11 -21 -45 -51 -60 -63 -1 -4 -5 -7 -8 -14 -15 -17 -18 -39 -41 -42 -47 -48 -57 0
-63 -60 -51 -45 -21 -11 -57 -48 -42 -18 -8 -47 -41 -17 -7 -39 -15 -5 -14 -4 -1 0
-1 -4 -5 -7 -9 -10 -14 -15 -17 -19 -20 -39 -41 -43 -44 -47 -49 -50 -58 -59 -64 0
-10 -9 -7 -5 -4 -1 -64 -59 -50 -44 -20 -58 -49 -43 -19 -47 -41 -17 -39 -15 -14 0
-1 -20 -19 -17 -15 -14 -10 -9 -7 -5 -4 -64 -59 -50 -44 -58 -49 -43 -47 -41 -39 0
-14 -15 -17 -19 -20 -1 -39 -41 -43 -44 -4 -47 -49 -50 -5 -58 -59 -7 -64 -9 -10 0
-14 -4 -44 -43 -41 -39 -1 -20 -19 -17 -15 -10 -9 -7 -5 -64 -59 -50 -58 -49 -47 0
-39 -41 -43 -44 -4 -14 -47 -49 -50 -5 -15 -58 -59 -7 -17 -64 -9 -19 -10 -20 -1 0
-39 -15 -5 -50 -49 -47 -14 -4 -44 -43 -41 -1 -20 -19 -17 -10 -9 -7 -64 -59 -58 0
-47 -49 -50 -5 -15 -39 -58 -59 -7 -17 -41 -64 -9 -19 -43 -10 -20 -44 -1 -4 -14 0
-47 -41 -17 -7 -59 -58 -39 -15 -5 -50 -49 -14 -4 -44 -43 -1 -20 -19 -10 -9 -64 0
-58 -59 -7 -17 -41 -47 -64 -9 -19 -43 -49 -10 -20 -44 -50 -1 -4 -5 -14 -15 -39 0
-58 -49 -43 -19 -9 -64 -47 -41 -17 -7 -59 -39 -15 -5 -50 -14 -4 -44 -1 -20 -10 0
-64 -9 -19 -43 -49 -58 -10 -20 -44 -50 -59 -1 -4 -5 -7 -14 -15 -17 -39 -41 -47 0
-10 -20 -44 -50 -59 -64 -1 -4 -5 -7 -9 -14 -15 -17 -19 -39 -41 -43 -47 -49 -58 0
-64 -59 -50 -44 -20 -10 -58 -49 -43 -19 -9 -47 -41 -17 -7 -39 -15 -5 -14 -4 -1 0
-1 -4 -5 -7 -9 -11 -14 -15 -17 -19 -21 -39 -41 -43 -45 -47 -49 -51 -58 -60 -65 0
-11 -9 -7 -5 -4 -1 -65 -60 -51 -45 -21 -58 -49 -43 -19 -47 -41 -17 -39 -15 -14 0
-1 -21 -19 -17 -15 -14 -11 -9 -7 -5 -4 -65 -60 -51 -45 -58 -49 -43 -47 -41 -39 0
-14 -15 -17 -19 -21 -1 -39 -41 -43 -45 -4 -47 -49 -51 -5 -58 -60 -7 -65 -9 -11 0
-14 -4 -45 -43 -41 -39 -1 -21 -19 -17 -15 -11 -9 -7 -5 -65 -60 -51 -58 -49 -47 0
-39 -41 -43 -45 -4 -14 -47 -49 -51 -5 -15 -58 -60 -7 -17 -65 -9 -19 -11 -21 -1 0
-39 -15 -5 -51 -49 -47 -14 -4 -45 -43 -41 -1 -21 -19 -17 -11 -9 -7 -65 -60 -58 0
-47 -49 -51 -5 -15 -39 -58 -60 -7 -17 -41 -65 -9 -19 -43 -11 -21 -45 -1 -4 -14 0
-47 -41 -17 -7 -60 -58 -39 -15 -5 -51 -49 -14 -4 -45 -43 -1 -21 -19 -11 -9 -65 0
-58 -60 -7 -17 -41 -47 -65 -9 -19 -43 -49 -11 -21 -45 -51 -1 -4 -5 -14 -15 -39 0
-58 -49 -43 -19 -9 -65 -47 -41 -17 -7 -60 -39 -15 -5 -51 -14 -4 -45 -1 -21 -11 0
-65 -9 -19 -43 -49 -58 -11 -21 -45 -51 -60 -1 -4 -5 -7 -14 -15 -17 -39 -41 -47 0
-11 -21 -45 -51 -60 -65 -1 -4 -5 -7 -9 -14 -15 -17 -19 -39 -41 -43 -47 -49 -58 0
-65 -60 -51 -45 -21 -11 -58 -49 -43 -19 -9 -47 -41 -17 -7 -39 -15 -5 -14 -4 -1 0
-1 -4 -5 -7 -10 -11 -14 -15 -17 -20 -21 -39 -41 -44 -45 -47 -50 -51 -59 -60 -66 0
-11 -10 -7 -5 -4 -1 -66 -60 -51 -45 -21 -59 -50 -44 -20 -47 -41 -17 -39 -15 -14 0
-1 -21 -20 -17 -15 -14 -11 -10 -7 -5 -4 -66 -60 -51 -45 -59 -50 -44 -47 -41 -39 0
-14 -15 -17 -20 -21 -1 -39 -41 -44 -45 -4 -47 -50 -51 -5 -59 -60 -7 -66 -10 -11 0
-14 -4 -45 -44 -41 -39 -1 -21 -20 -17 -15 -11 -10 -7 -5 -66 -60 -51 -59 -50 -47 0
-39 -41 -44 -45 -4 -14 -47 -50 -51 -5 -15 -59 -60 -7 -17 -66 -10 -20 -11 -21 -1 0
-39 -15 -5 -51 -50 -47 -14 -4 -45 -44 -41 -1 -21 -20 -17 -11 -10 -7 -66 -60 -59 0
-47 -50 -51 -5 -15 -39 -59 -60 -7 -17 -41 -66 -10 -20 -44 -11 -21 -45 -1 -4 -14 0
-47 -41 -17 -7 -60 -59 -39 -15 -5 -51 -50 -14 -4 -45 -44 -1 -21 -20 -11 -10 -66 0
-59 -60 -7 -17 -41 -47 -66 -10 -20 -44 -50 -11 -21 -45 -51 -1 -4 -5 -14 -15 -39 0
-59 -50 -44 -20 -10 -66 -47 -41 -17 -7 -60 -39 -15 -5 -51 -14 -4 -45 -1 -21 -11 0
-66 -10 -20 -44 -50 -59 -11 -21 -45 -51 -60 -1 -4 -5 -7 -14 -15 -17 -39 -41 -47 0
-11 -21 -45 -51 -60 -66 -1 -4 -5 -7 -10 -14 -15 -17 -20 -39 -41 -44 -47 -50 -59 0
-66 -60 -51 -45 -21 -11 -59 -50 -44 -20 -10 -47 -41 -17 -7 -39 -15 -5 -14 -4 -1 0
-1 -4 -5 -8 -9 -10 -14 -15 -18 -19 -20 -39 -42 -43 -44 -48 -49 -50 -61 -62 -64 0
-10 -9 -8 -5 -4 -1 -64 -62 -50 -44 -20 -61 -49 -43 -19 -48 -42 -18 -39 -15 -14 0
-1 -20 -19 -18 -15 -14 -10 -9 -8 -5 -4 -64 -62 -50 -44 -61 -49 -43 -48 -42 -39 0
-14 -15 -18 -19 -20 -1 -39 -42 -43 -44 -4 -48 -49 -50 -5 -61 -62 -8 -64 -9 -10 0
-14 -4 -44 -43 -42 -39 -1 -20 -19 -18 -15 -10 -9 -8 -5 -64 -62 -50 -61 -49 -48 0
-39 -42 -43 -44 -4 -14 -48 -49 -50 -5 -15 -61 -62 -8 -18 -64 -9 -19 -10 -20 -1 0
-39 -15 -5 -50 -49 -48 -14 -4 -44 -43 -42 -1 -20 -19 -18 -10 -9 -8 -64 -62 -61 0
-48 -49 -50 -5 -15 -39 -61 -62 -8 -18 -42 -64 -9 -19 -43 -10 -20 -44 -1 -4 -14 0
-48 -42 -18 -8 -62 -61 -39 -15 -5 -50 -49 -14 -4 -44 -43 -1 -20 -19 -10 -9 -64 0
-61 -62 -8 -18 -42 -48 -64 -9 -19 -43 -49 -10 -20 -44 -50 -1 -4 -5 -14 -15 -39 0
-61 -49 -43 -19 -9 -64 -48 -42 -18 -8 -62 -39 -15 -5 -50 -14 -4 -44 -1 -20 -10 0
-64 -9 -19 -43 -49 -61 -10 -20 -44 -50 -62 -1 -4 -5 -8 -14 -15 -18 -39 -42 -48 0
-10 -20 -44 -50 -62 -64 -1 -4 -5 -8 -9 -14 -15 -18 -19 -39 -42 -43 -48 -49 -61 0
-64 -62 -50 -44 -20 -10 -61 -49 -43 -19 -9 -48 -42 -18 -8 -39 -15 -5 -14 -4 -1 0
-1 -4 -5 -8 -9 -11 -14 -15 -18 -19 -21 -39 -42 -43 -45 -48 -49 -51 -61 -63 -65 0
-11 -9 -8 -5 -4 -1 -65 -63 -51 -45 -21 -61 -49 -43 -19 -48 -42 -18 -39 -15 -14 0
-1 -21 -19 -18 -15 -14 -11 -9 -8 -5 -4 -65 -63 -51 -45 -61 -49 -43 -48 -42 -39 0
-14 -15 -18 -19 -21 -1 -39 -42 -43 -45 -4 -48 -49 -51 -5 -61 -63 -8 -65 -9 -11 0
-14 -4 -45 -43 -42 -39 -1 -21 -19 -18 -15 -11 -9 -8 -5 -65 -63 -51 -61 -49 -48 0
-39 -42 -43 -45 -4 -14 -48 -49 -51 -5 -15 -61 -63 -8 -18 -65 -9 -19 -11 -21 -1 0
-39 -15 -5 -51 -49 -48 -14 -4 -45 -43 -42 -1 -21 -19 -18 -11 -9 -8 -65 -63 -61 0
-48 -49 -51 -5 -15 -39 -61 -63 -8 -18 -42 -65 -9 -19 -43 -11 -21 -45 -1 -4 -14 0
-48 -42 -18 -8 -63 -61 -39 -15 -5 -51 -49 -14 -4 -45 -43 -1 -21 -19 -11 -9 -65 0
-61 -63 -8 -18 -42 -48 -65 -9 -19 -43 -49 -11 -21 -45 -51 -1 -4 -5 -14 -15 -39 0
-61 -49 -43 -19 -9 -65 -48 -42 -18 -8 -63 -39 -15 -5 -51 -14 -4 -45 -1 -21 -11 0
-65 -9 -19 -43 -49 -61 -11 -21 -45 -51 -63 -1 -4 -5 -8 -14 -15 -18 -39 -42 -48 0
-11 -21 -45 -51 -63 -65 -1 -4 -5 -8 -9 -14 -15 -18 -19 -39 -42 -43 -48 -49 -61 0
-65 -63 -51 -45 -21 -11 -61 -49 -43 -19 -9 -48 -42 -18 -8 -39 -15 -5 -14 -4 -1 0
-1 -4 -5 -8 -10 -11 -14 -15 -18 -20 -21 -39 -42 -44 -45 -48 -50 -51 -62 -63 -66 0
-11 -10 -8 -5 -4 -1 -66 -63 -51 -45 -21 -62 -50 -44 -20 -48 -42 -18 -39 -15 -14 0
-1 -21 -20 -18 -15 -14 -11 -10 -8 -5 -4 -66 -63 -51 -45 -62 -50 -44 -48 -42 -39 0
-14 -15 -18 -20 -21 -1 -39 -42 -44 -45 -4 -48 -50 -51 -5 -62 -63 -8 -66 -10 -11 0
-14 -4 -45 -44 -42 -39 -1 -21 -20 -18 -15 -11 -10 -8 -5 -66 -63 -51 -62 -50 -48 0
-39 -42 -44 -45 -4 -14 -48 -50 -51 -5 -15 -62 -63 -8 -18 -66 -10 -20 -11 -21 -1 0
-39 -15 -5 -51 -50 -48 -14 -4 -45 -44 -42 -1 -21 -20 -18 -11 -10 -8 -66 -63 -62 0
-48 -50 -51 -5 -15 -39 -62 -63 -8 -18 -42 -66 -10 -20 -44 -11 -21 -45 -1 -4 -14 0
-48 -42 -18 -8 -63 -62 -39 -15 -5 -51 -50 -14 -4 -45 -44 -1 -21 -20 -11 -10 -66 0
-62 -63 -8 -18 -42 -48 -66 -10 -20 -44 -50 -11 -21 -45 -51 -1 -4 -5 -14 -15 -39 0
-62 -50 -44 -20 -10 -66 -48 -42 -18 -8 -63 -39 -15 -5 -51 -14 -4 -45 -1 -21 -11 0
-66 -10 -20 -44 -50 -62 -11 -21 -45 -51 -63 -1 -4 -5 -8 -14 -15 -18 -39 -42 -48 0
-11 -21 -45 -51 -63 -66 -1 -4 -5 -8 -10 -14 -15 -18 -20 -39 -42 -44 -48 -50 -62 0
-66 -63 -51 -45 -21 -11 -62 -50 -44 -20 -10 -48 -42 -18 -8 -39 -15 -5 -14 -4 -1 0
-1 -4 -5 -9 -10 -11 -14 -15 -19 -20 -21 -39 -43 -44 -45 -49 -50 -51 -64 -65 -66 0
-11 -10 -9 -5 -4 -1 -66 -65 -51 -45 -21 -64 -50 -44 -20 -49 -43 -19 -39 -15 -14 0
-1 -21 -20 -19 -15 -14 -11 -10 -9 -5 -4 -66 -65 -51 -45 -64 -50 -44 -49 -43 -39 0
-14 -15 -19 -20 -21 -1 -39 -43 -44 -45 -4 -49 -50 -51 -5 -64 -65 -9 -66 -10 -11 0
-14 -4 -45 -44 -43 -39 -1 -21 -20 -19 -15 -11 -10 -9 -5 -66 -65 -51 -64 -50 -49 0
-39 -43 -44 -45 -4 -14 -49 -50 -51 -5 -15 -64 -65 -9 -19 -66 -10 -20 -11 -21 -1 0
-39 -15 -5 -51 -50 -49 -14 -4 -45 -44 -43 -1 -21 -20 -19 -11 -10 -9 -66 -65 -64 0
-49 -50 -51 -5 -15 -39 -64 -65 -9 -19 -43 -66 -10 -20 -44 -11 -21 -45 -1 -4 -14 0
-49 -43 -19 -9 -65 -64 -39 -15 -5 -51 -50 -14 -4 -45 -44 -1 -21 -20 -11 -10 -66 0
-64 -65 -9 -19 -43 -49 -66 -10 -20 -44 -50 -11 -21 -45 -51 -1 -4 -5 -14 -15 -39 0
-64 -50 -44 -20 -10 -66 -49 -43 -19 -9 -65 -39 -15 -5 -51 -14 -4 -45 -1 -21 -11 0
-66 -10 -20 -44 -50 -64 -11 -21 -45 -51 -65 -1 -4 -5 -9 -14 -15 -19 -39 -43 -49 0
-11 -21 -45 -51 -65 -66 -1 -4 -5 -9 -10 -14 -15 -19 -20 -39 -43 -44 -49 -50 -64 0
-66 -65 -51 -45 -21 -11 -64 -50 -44 -20 -10 -49 -43 -19 -9 -39 -15 -5 -14 -4 -1 0
-1 -4 -6 -7 -8 -9 -14 -16 -17 -18 -19 -40 -41 -42 -43 -52 -53 -54 -57 -58 -61 0
-9 -8 -7 -6 -4 -1 -61 -58 -54 -43 -19 -57 -53 -42 -18 -52 -41 -17 -40 -16 -14 0
-1 -19 -18 -17 -16 -14 -9 -8 -7 -6 -4 -61 -58 -54 -43 -57 -53 -42 -52 -41 -40 0
-14 -16 -17 -18 -19 -1 -40 -41 -42 -43 -4 -52 -53 -54 -6 -57 -58 -7 -61 -8 -9 0
-14 -4 -43 -42 -41 -40 -1 -19 -18 -17 -16 -9 -8 -7 -6 -61 -58 -54 -57 -53 -52 0
-40 -41 -42 -43 -4 -14 -52 -53 -54 -6 -16 -57 -58 -7 -17 -61 -8 -18 -9 -19 -1 0
-40 -16 -6 -54 -53 -52 -14 -4 -43 -42 -41 -1 -19 -18 -17 -9 -8 -7 -61 -58 -57 0
-52 -53 -54 -6 -16 -40 -57 -58 -7 -17 -41 -61 -8 -18 -42 -9 -19 -43 -1 -4 -14 0
-52 -41 -17 -7 -58 -57 -40 -16 -6 -54 -53 -14 -4 -43 -42 -1 -19 -18 -9 -8 -61 0
-57 -58 -7 -17 -41 -52 -61 -8 -18 -42 -53 -9 -19 -43 -54 -1 -4 -6 -14 -16 -40 0
-57 -53 -42 -18 -8 -61 -52 -41 -17 -7 -58 -40 -16 -6 -54 -14 -4 -43 -1 -19 -9 0
-61 -8 -18 -42 -53 -57 -9 -19 -43 -54 -58 -1 -4 -6 -7 -14 -16 -17 -40 -41 -52 0
-9 -19 -43 -54 -58 -61 -1 -4 -6 -7 -8 -14 -16 -17 -18 -40 -41 -42 -52 -53 -57 0
-61 -58 -54 -43 -19 -9 -57 -53 -42 -18 -8 -52 -41 -17 -7 -40 -16 -6 -14 -4 -1 0
-1 -4 -6 -7 -8 -10 -14 -16 -17 -18 -20 -40 -41 -42 -44 -52 -53 -55 -57 -59 -62 0
-10 -8 -7 -6 -4 -1 -62 -59 -55 -44 -20 -57 -53 -42 -18 -52 -41 -17 -40 -16 -14 0
-1 -20 -18 -17 -16 -14 -10 -8 -7 -6 -4 -62 -59 -55 -44 -57 -53 -42 -52 -41 -40 0
-14 -16 -17 -18 -20 -1 -40 -41 -42 -44 -4 -52 -53 -55 -6 -57 -59 -7 -62 -8 -10 0
-14 -4 -44 -42 -41 -40 -1 -20 -18 -17 -16 -10 -8 -7 -6 -62 -59 -55 -57 -53 -52 0
-40 -41 -42 -44 -4 -14 -52 -53 -55 -6 -16 -57 -59 -7 -17 -62 -8 -18 -10 -20 -1 0
-40 -16 -6 -55 -53 -52 -14 -4 -44 -42 -41 -1 -20 -18 -17 -10 -8 -7 -62 -59 -57 0
-52 -53 -55 -6 -16 -40 -57 -59 -7 -17 -41 -62 -8 -18 -42 -10 -20 -44 -1 -4 -14 0
-52 -41 -17 -7 -59 -57 -40 -16 -6 -55 -53 -14 -4 -44 -42 -1 -20 -18 -10 -8 -62 0
-57 -59 -7 -17 -41 -52 -62 -8 -18 -42 -53 -10 -20 -44 -55 -1 -4 -6 -14 -16 -40 0
-57 -53 -42 -18 -8 -62 -52 -41 -17 -7 -59 -40 -16 -6 -55 -14 -4 -44 -1 -20 -10 0
-62 -8 -18 -42 -53 -57 -10 -20 -44 -55 -59 -1 -4 -6 -7 -14 -16 -17 -40 -41 -52 0
-10 -20 -44 -55 -59 -62 -1 -4 -6 -7 -8 -14 -16 -17 -18 -40 -41 -42 -52 -53 -57 0
-62 -59 -55 -44 -20 -10 -57 -53 -42 -18 -8 -52 -41 -17 -7 -40 -16 -6 -14 -4 -1 0
-1 -4 -6 -7 -8 -11 -14 -16 -17 -18 -21 -40 -41 -42 -45 -52 -53 -56 -57 -60 -63 0
-11 -8 -7 -6 -4 -1 -63 -60 -56 -45 -21 -57 -53 -42 -18 -52 -41 -17 -40 -16 -14 0
-1 -21 -18 -17 -16 -14 -11 -8 -7 -6 -4 -63 -60 -56 -45 -57 -53 -42 -52 -41 -40 0
-14 -16 -17 -18 -21 -1 -40 -41 -42 -45 -4 -52 -53 -56 -6 -57 -60 -7 -63 -8 -11 0
-14 -4 -45 -42 -41 -40 -1 -21 -18 -17 -16 -11 -8 -7 -6 -63 -60 -56 -57 -53 -52 0
-40 -41 -42 -45 -4 -14 -52 -53 -56 -6 -16 -57 -60 -7 -17 -63 -8 -18 -11 -21 -1 0
-40 -16 -6 -56 -53 -52 -14 -4 -45 -42 -41 -1 -21 -18 -17 -11 -8 -7 -63 -60 -57 0
-52 -53 -56 -6 -16 -40 -57 -60 -7 -17 -41 -63 -8 -18 -42 -11 -21 -45 -1 -4 -14 0
-52 -41 -17 -7 -60 -57 -40 -16 -6 -56 -53 -14 -4 -45 -42 -1 -21 -18 -11 -8 -63 0
-57 -60 -7 -17 -41 -52 -63 -8 -18 -42 -53 -11 -21 -45 -56 -1 -4 -6 -14 -16 -40 0
-57 -53 -42 -18 -8 -63 -52 -41 -17 -7 -60 -40 -16 -6 -56 -14 -4 -45 -1 -21 -11 0
-63 -8 -18 -42 -53 -57 -11 -21 -45 -56 -60 -1 -4 -6 -7 -14 -16 -17 -40 -41 -52 0
-11 -21 -45 -56 -60 -63 -1 -4 -6 -7 -8 -14 -16 -17 -18 -40 -41 -42 -52 -53 -57 0
-63 -60 -56 -45 -21 -11 -57 -53 -42 -18 -8 -52 -41 -17 -7 -40 -16 -6 -14 -4 -1 0
-1 -4 -6 -7 -9 -10 -14 -16 -17 -19 -20 -40 -41 -43 -44 -52 -54 -55 -58 -59 -64 0
-10 -9 -7 -6 -4 -1 -64 -59 -55 -44 -20 -58 -54 -43 -19 -52 -41 -17 -40 -16 -14 0
-1 -20 -19 -17 -16 -14 -10 -9 -7 -6 -4 -64 -59 -55 -44 -58 -54 -43 -52 -41 -40 0
-14 -16 -17 -19 -20 -1 -40 -41 -43 -44 -4 -52 -54 -55 -6 -58 -59 -7 -64 -9 -10 0
-14 -4 -44 -43 -41 -40 -1 -20 -19 -17 -16 -10 -9 -7 -6 -64 -59 -55 -58 -54 -52 0
-40 -41 -43 -44 -4 -14 -52 -54 -55 -6 -16 -58 -59 -7 -17 -64 -9 -19 -10 -20 -1 0
-40 -16 -6 -55 -54 -52 -14 -4 -44 -43 -41 -1 -20 -19 -17 -10 -9 -7 -64 -59 -58 0
-52 -54 -55 -6 -16 -40 -58 -59 -7 -17 -41 -64 -9 -19 -43 -10 -20 -44 -1 -4 -14 0
-52 -41 -17 -7 -59 -58 -40 -16 -6 -55 -54 -14 -4 -44 -43 -1 -20 -19 -10 -9 -64 0
-58 -59 -7 -17 -41 -52 -64 -9 -19 -43 -54 -10 -20 -44 -55 -1 -4 -6 -14 -16 -40 0
-58 -54 -43 -19 -9 -64 -52 -41 -17 -7 -59 -40 -16 -6 -55 -14 -4 -44 -1 -20 -10 0
-64 -9 -19 -43 -54 -58 -10 -20 -44 -55 -59 -1 -4 -6 -7 -14 -16 -17 -40 -41 -52 0
-10 -20 -44 -55 -59 -64 -1 -4 -6 -7 -9 -14 -16 -17 -19 -40 -41 -43 -52 -54 -58 0
-64 -59 -55 -44 -20 -10 -58 -54 -43 -19 -9 -52 -41 -17 -7 -40 -16 -6 -14 -4 -1 0
-1 -4 -6 -7 -9 -11 -14 -16 -17 -19 -21 -40 -41 -43 -45 -52 -54 -56 -58 -60 -65 0
-11 -9 -7 -6 -4 -1 -65 -60 -56 -45 -21 -58 -54 -43 -19 -52 -41 -17 -40 -16 -14 0
-1 -21 -19 -17 -16 -14 -11 -9 -7 -6 -4 -65 -60 -56 -45 -58 -54 -43 -52 -41 -40 0
-14 -16 -17 -19 -21 -1 -40 -41 -43 -45 -4 -52 -54 -56 -6 -58 -60 -7 -65 -9 -11 0
-14 -4 -45 -43 -41 -40 -1 -21 -19 -17 -16 -11 -9 -7 -6 -65 -60 -56 -58 -54 -52 0
-40 -41 -43 -45 -4 -14 -52 -54 -56 -6 -16 -58 -60 -7 -17 -65 -9 -19 -11 -21 -1 0
-40 -16 -6 -56 -54 -52 -14 -4 -45 -43 -41 -1 -21 -19 -17 -11 -9 -7 -65 -60 -58 0
-52 -54 -56 -6 -16 -40 -58 -60 -7 -17 -41 -65 -9 -19 -43 -11 -21 -45 -1 -4 -14 0
-52 -41 -17 -7 -60 -58 -40 -16 -6 -56 -54 -14 -4 -45 -43 -1 -21 -19 -11 -9 -65 0
-58 -60 -7 -17 -41 -52 -65 -9 -19 -43 -54 -11 -21 -45 -56 -1 -4 -6 -14 -16 -40 0
-58 -54 -43 -19 -9 -65 -52 -41 -17 -7 -60 -40 -16 -6 -56 -14 -4 -45 -1 -21 -11 0
-65 -9 -19 -43 -54 -58 -11 -21 -45 -56 -60 -1 -4 -6 -7 -14 -16 -17 -40 -41 -52 0
-11 -21 -45 -56 -60 -65 -1 -4 -6 -7 -9 -14 -16 -17 -19 -40 -41 -43 -52 -54 -58 0
-65 -60 -56 -45 -21 -11 -58 -54 -43 -19 -9 -52 -41 -17 -7 -40 -16 -6 -14 -4 -1 0
-1 -4 -6 -7 -10 -11 -14 -16 -17 -20 -21 -40 -41 -44 -45 -52 -55 -56 -59 -60 -66 0
-11 -10 -7 -6 -4 -1 -66 -60 -56 -45 -21 -59 -55 -44 -20 -52 -41 -17 -40 -16 -14 0
-1 -21 -20 -17 -16 -14 -11 -10 -7 -6 -4 -66 -60 -56 -45 -59 -55 -44 -52 -41 -40 0
-14 -16 -17 -20 -21 -1 -40 -41 -44 -45 -4 -52 -55 -56 -6 -59 -60 -7 -66 -10 -11 0
-14 -4 -45 -44 -41 -40 -1 -21 -20 -17 -16 -11 -10 -7 -6 -66 -60 -56 -59 -55 -52 0
-40 -41 -44 -45 -4 -14 -52 -55 -56 -6 -16 -59 -60 -7 -17 -66 -10 -20 -11 -21 -1 0
-40 -16 -6 -56 -55 -52 -14 -4 -45 -44 -41 -1 -21 -20 -17 -11 -10 -7 -66 -60 -59 0
-52 -55 -56 -6 -16 -40 -59 -60 -7 -17 -41 -66 -10 -20 -44 -11 -21 -45 -1 -4 -14 0
-52 -41 -17 -7 -60 -59 -40 -16 -6 -56 -55 -14 -4 -45 -44 -1 -21 -20 -11 -10 -66 0
-59 -60 -7 -17 -41 -52 -66 -10 -20 -44 -55 -11 -21 -45 -56 -1 -4 -6 -14 -16 -40 0
-59 -55 -44 -20 -10 -66 -52 -41 -17 -7 -60 -40 -16 -6 -56 -14 -4 -45 -1 -21 -11 0
-66 -10 -20 -44 -55 -59 -11 -21 -45 -56 -60 -1 -4 -6 -7 -14 -16 -17 -40 -41 -52 0
-11 -21 -45 -56 -60 -66 -1 -4 -6 -7 -10 -14 -16 -17 -20 -40 -41 -44 -52 -55 -59 0
-66 -60 -56 -45 -21 -11 -59 -55 -44 -20 -10 -52 -41 -17 -7 -40 -16 -6 -14 -4 -1 0
-1 -4 -6 -8 -9 -10 -14 -16 -18 -19 -20 -40 -42 -43 -44 -53 -54 -55 -61 -62 -64 0
-10 -9 -8 -6 -4 -1 -64 -62 -55 -44 -20 -61 -54 -43 -19 -53 -42 -18 -40 -16 -14 0
-1 -20 -19 -18 -16 -14 -10 -9 -8 -6 -4 -64 -62 -55 -44 -61 -54 -43 -53 -42 -40 0
-14 -16 -18 -19 -20 -1 -40 -42 -43 -44 -4 -53 -54 -55 -6 -61 -62 -8 -64 -9 -10 0
-14 -4 -44 -43 -42 -40 -1 -20 -19 -18 -16 -10 -9 -8 -6 -64 -62 -55 -61 -54 -53 0
-40 -42 -43 -44 -4 -14 -53 -54 -55 -6 -16 -61 -62 -8 -18 -64 -9 -19 -10 -20 -1 0
-40 -16 -6 -55 -54 -53 -14 -4 -44 -43 -42 -1 -20 -19 -18 -10 -9 -8 -64 -62 -61 0
-53 -54 -55 -6 -16 -40 -61 -62 -8 -18 -42 -64 -9 -19 -43 -10 -20 -44 -1 -4 -14 0
-53 -42 -18 -8 -62 -61 -40 -16 -6 -55 -54 -14 -4 -44 -43 -1 -20 -19 -10 -9 -64 0
-61 -62 -8 -18 -42 -53 -64 -9 -19 -43 -54 -10 -20 -44 -55 -1 -4 -6 -14 -16 -40 0
-61 -54 -43 -19 -9 -64 -53 -42 -18 -8 -62 -40 -16 -6 -55 -14 -4 -44 -1 -20 -10 0
-64 -9 -19 -43 -54 -61 -10 -20 -44 -55 -62 -1 -4 -6 -8 -14 -16 -18 -40 -42 -53 0
-10 -20 -44 -55 -62 -64 -1 -4 -6 -8 -9 -14 -16 -18 -19 -40 -42 -43 -53 -54 -61 0
-64 -62 -55 -44 -20 -10 -61 -54 -43 -19 -9 -53 -42 -18 -8 -40 -16 -6 -14 -4 -1 0
-1 -4 -6 -8 -9 -11 -14 -16 -18 -19 -21 -40 -42 -43 -45 -53 -54 -56 -61 -63 -65 0
-11 -9 -8 -6 -4 -1 -65 -63 -56 -45 -21 -61 -54 -43 -19 -53 -42 -18 -40 -16 -14 0
-1 -21 -19 -18 -16 -14 -11 -9 -8 -6 -4 -65 -63 -56 -45 -61 -54 -43 -53 -42 -40 0
-14 -16 -18 -19 -21 -1 -40 -42 -43 -45 -4 -53 -54 -56 -6 -61 -63 -8 -65 -9 -11 0
-14 -4 -45 -43 -42 -40 -1 -21 -19 -18 -16 -11 -9 -8 -6 -65 -63 -56 -61 -54 -53 0
-40 -42 -43 -45 -4 -14 -53 -54 -56 -6 -16 -61 -63 -8 -18 -65 -9 -19 -11 -21 -1 0
-40 -16 -6 -56 -54 -53 -14 -4 -45 -43 -42 -1 -21 -19 -18 -11 -9 -8 -65 -63 -61 0
-53 -54 -56 -6 -16 -40 -61 -63 -8 -18 -42 -65 -9 -19 -43 -11 -21 -45 -1 -4 -14 0
-53 -42 -18 -8 -63 -61 -40 -16 -6 -56 -54 -14 -4 -45 -43 -1 -21 -19 -11 -9 -65 0
-61 -63 -8 -18 -42 -53 -65 -9 -19 -43 -54 -11 -21 -45 -56 -1 -4 -6 -14 -16 -40 0
-61 -54 -43 -19 -9 -65 -53 -42 -18 -8 -63 -40 -16 -6 -56 -14 -4 -45 -1 -21 -11 0
-65 -9 -19 -43 -54 -61 -11 -21 -45 -56 -63 -1 -4 -6 -8 -14 -16 -18 -40 -42 -53 0
-11 -21 -45 -56 -63 -65 -1 -4 -6 -8 -9 -14 -16 -18 -19 -40 -42 -43 -53 -54 -61 0
-65 -63 -56 -45 -21 -11 -61 -54 -43 -19 -9 -53 -42 -18 -8 -40 -16 -6 -14 -4 -1 0
-1 -4 -6 -8 -10 -11 -14 -16 -18 -20 -21 -40 -42 -44 -45 -53 -55 -56 -62 -63 -66 0
-11 -10 -8 -6 -4 -1 -66 -63 -56 -45 -21 -62 -55 -44 -20 -53 -42 -18 -40 -16 -14 0
-1 -21 -20 -18 -16 -14 -11 -10 -8 -6 -4 -66 -63 -56 -45 -62 -55 -44 -53 -42 -40 0
-14 -16 -18 -20 -21 -1 -40 -42 -44 -45 -4 -53 -55 -56 -6 -62 -63 -8 -66 -10 -11 0
-14 -4 -45 -44 -42 -40 -1 -21 -20 -18 -16 -11 -10 -8 -6 -66 -63 -56 -62 -55 -53 0
-40 -42 -44 -45 -4 -14 -53 -55 -56 -6 -16 -62 -63 -8 -18 -66 -10 -20 -11 -21 -1 0
-40 -16 -6 -56 -55 -53 -14 -4 -45 -44 -42 -1 -21 -20 -18 -11 -10 -8 -66 -63 -62 0
-53 -55 -56 -6 -16 -40 -62 -63 -8 -18 -42 -66 -10 -20 -44 -11 -21 -45 -1 -4 -14 0
-53 -42 -18 -8 -63 -62 -40 -16 -6 -56 -55 -14 -4 -45 -44 -1 -21 -20 -11 -10 -66 0
-62 -63 -8 -18 -42 -53 -66 -10 -20 -44 -55 -11 -21 -45 -56 -1 -4 -6 -14 -16 -40 0
-62 -55 -44 -20 -10 -66 -53 -42 -18 -8 -63 -40 -16 -6 -56 -14 -4 -45 -1 -21 -11 0
-66 -10 -20 -44 -55 -62 -11 -21 -45 -56 -63 -1 -4 -6 -8 -14 -16 -18 -40 -42 -53 0
-11 -21 -45 -56 -63 -66 -1 -4 -6 -8 -10 -14 -16 -18 -20 -40 -42 -44 -53 -55 -62 0
-66 -63 -56 -45 -21 -11 -62 -55 -44 -20 -10 -53 -42 -18 -8 -40 -16 -6 -14 -4 -1 0
-1 -4 -6 -9 -10 -11 -14 -16 -19 -20 -21 -40 -43 -44 -45 -54 -55 -56 -64 -65 -66 0
-11 -10 -9 -6 -4 -1 -66 -65 -56 -45 -21 -64 -55 -44 -20 -54 -43 -19 -40 -16 -14 0
-1 -21 -20 -19 -16 -14 -11 -10 -9 -6 -4 -66 -65 -56 -45 -64 -55 -44 -54 -43 -40 0
-14 -16 -19 -20 -21 -1 -40 -43 -44 -45 -4 -54 -55 -56 -6 -64 -65 -9 -66 -10 -11 0
-14 -4 -45 -44 -43 -40 -1 -21 -20 -19 -16 -11 -10 -9 -6 -66 -65 -56 -64 -55 -54 0
-40 -43 -44 -45 -4 -14 -54 -55 -56 -6 -16 -64 -65 -9 -19 -66 -10 -20 -11 -21 -1 0
-40 -16 -6 -56 -55 -54 -14 -4 -45 -44 -43 -1 -21 -20 -19 -11 -10 -9 -66 -65 -64 0
-54 -55 -56 -6 -16 -40 -64 -65 -9 -19 -43 -66 -10 -20 -44 -11 -21 -45 -1 -4 -14 0
-54 -43 -19 -9 -65 -64 -40 -16 -6 -56 -55 -14 -4 -45 -44 -1 -21 -20 -11 -10 -66 0
-64 -65 -9 -19 -43 -54 -66 -10 -20 -44 -55 -11 -21 -45 -56 -1 -4 -6 -14 -16 -40 0
-64 -55 -44 -20 -10 -66 -54 -43 -19 -9 -65 -40 -16 -6 -56 -14 -4 -45 -1 -21 -11 0
-66 -10 -20 -44 -55 -64 -11 -21 -45 -56 -65 -1 -4 -6 -9 -14 -16 -19 -40 -43 -54 0
-11 -21 -45 -56 -65 -66 -1 -4 -6 -9 -10 -14 -16 -19 -20 -40 -43 -44 -54 -55 -64 0
-66 -65 -56 -45 -21 -11 -64 -55 -44 -20 -10 -54 -43 -19 -9 -40 -16 -6 -14 -4 -1 0
-1 -4 -7 -8 -9 -10 -14 -17 -18 -19 -20 -41 -42 -43 -44 -57 -58 -59 -61 -62 -64 0
-10 -9 -8 -7 -4 -1 -64 -62 -59 -44 -20 -61 -58 -43 -19 -57 -42 -18 -41 -17 -14 0
-1 -20 -19 -18 -17 -14 -10 -9 -8 -7 -4 -64 -62 -59 -44 -61 -58 -43 -57 -42 -41 0
-14 -17 -18 -19 -20 -1 -41 -42 -43 -44 -4 -57 -58 -59 -7 -61 -62 -8 -64 -9 -10 0
-14 -4 -44 -43 -42 -41 -1 -20 -19 -18 -17 -10 -9 -8 -7 -64 -62 -59 -61 -58 -57 0
-41 -42 -43 -44 -4 -14 -57 -58 -59 -7 -17 -61 -62 -8 -18 -64 -9 -19 -10 -20 -1 0
-41 -17 -7 -59 -58 -57 -14 -4 -44 -43 -42 -1 -20 -19 -18 -10 -9 -8 -64 -62 -61 0
-57 -58 -59 -7 -17 -41 -61 -62 -8 -18 -42 -64 -9 -19 -43 -10 -20 -44 -1 -4 -14 0
-57 -42 -18 -8 -62 -61 -41 -17 -7 -59 -58 -14 -4 -44 -43 -1 -20 -19 -10 -9 -64 0
-61 -62 -8 -18 -42 -57 -64 -9 -19 -43 -58 -10 -20 -44 -59 -1 -4 -7 -14 -17 -41 0
-61 -58 -43 -19 -9 -64 -57 -42 -18 -8 -62 -41 -17 -7 -59 -14 -4 -44 -1 -20 -10 0
-64 -9 -19 -43 -58 -61 -10 -20 -44 -59 -62 -1 -4 -7 -8 -14 -17 -18 -41 -42 -57 0
-10 -20 -44 -59 -62 -64 -1 -4 -7 -8 -9 -14 -17 -18 -19 -41 -42 -43 -57 -58 -61 0
-64 -62 -59 -44 -20 -10 -61 -58 -43 -19 -9 -57 -42 -18 -8 -41 -17 -7 -14 -4 -1 0
-1 -4 -7 -8 -9 -11 -14 -17 -18 -19 -21 -41 -42 -43 -45 -57 -58 -60 -61 -63 -65 0
-11 -9 -8 -7 -4 -1 -65 -63 -60 -45 -21 -61 -58 -43 -19 -57 -42 -18 -41 -17 -14 0
-1 -21 -19 -18 -17 -14 -11 -9 -8 -7 -4 -65 -63 -60 -45 -61 -58 -43 -57 -42 -41 0
-14 -17 -18 -19 -21 -1 -41 -42 -43 -45 -4 -57 -58 -60 -7 -61 -63 -8 -65 -9 -11 0
-14 -4 -45 -43 -42 -41 -1 -21 -19 -18 -17 -11 -9 -8 -7 -65 -63 -60 -61 -58 -57 0
-41 -42 -43 -45 -4 -14 -57 -58 -60 -7 -17 -61 -63 -8 -18 -65 -9 -19 -11 -21 -1 0
-41 -17 -7 -60 -58 -57 -14 -4 -45 -43 -42 -1 -21 -19 -18 -11 -9 -8 -65 -63 -61 0
-57 -58 -60 -7 -17 -41 -61 -63 -8 -18 -42 -65 -9 -19 -43 -11 -21 -45 -1 -4 -14 0
-57 -42 -18 -8 -63 -61 -41 -17 -7 -60 -58 -14 -4 -45 -43 -1 -21 -19 -11 -9 -65 0
-61 -63 -8 -18 -42 -57 -65 -9 -19 -43 -58 -11 -21 -45 -60 -1 -4 -7 -14 -17 -41 0
-61 -58 -43 -19 -9 -65 -57 -42 -18 -8 -63 -41 -17 -7 -60 -14 -4 -45 -1 -21 -11 0
-65 -9 -19 -43 -58 -61 -11 -21 -45 -60 -63 -1 -4 -7 -8 -14 -17 -18 -41 -42 -57 0
-11 -21 -45 -60 -63 -65 -1 -4 -7 -8 -9 -14 -17 -18 -19 -41 -42 -43 -57 -58 -61 0
-65 -63 -60 -45 -21 -11 -61 -58 -43 -19 -9 -57 -42 -18 -8 -41 -17 -7 -14 -4 -1 0
-1 -4 -7 -8 -10 -11 -14 -17 -18 -20 -21 -41 -42 -44 -45 -57 -59 -60 -62 -63 -66 0
-11 -10 -8 -7 -4 -1 -66 -63 -60 -45 -21 -62 -59 -44 -20 -57 -42 -18 -41 -17 -14 0
-1 -21 -20 -18 -17 -14 -11 -10 -8 -7 -4 -66 -63 -60 -45 -62 -59 -44 -57 -42 -41 0
-14 -17 -18 -20 -21 -1 -41 -42 -44 -45 -4 -57 -59 -60 -7 -62 -63 -8 -66 -10 -11 0
-14 -4 -45 -44 -42 -41 -1 -21 -20 -18 -17 -11 -10 -8 -7 -66 -63 -60 -62 -59 -57 0
-41 -42 -44 -45 -4 -14 -57 -59 -60 -7 -17 -62 -63 -8 -18 -66 -10 -20 -11 -21 -1 0
-41 -17 -7 -60 -59 -57 -14 -4 -45 -44 -42 -1 -21 -20 -18 -11 -10 -8 -66 -63 -62 0
-57 -59 -60 -7 -17 -41 -62 -63 -8 -18 -42 -66 -10 -20 -44 -11 -21 -45 -1 -4 -14 0
-57 -42 -18 -8 -63 -62 -41 -17 -7 -60 -59 -14 -4 -45 -44 -1 -21 -20 -11 -10 -66 0
-62 -63 -8 -18 -42 -57 -66 -10 -20 -44 -59 -11 -21 -45 -60 -1 -4 -7 -14 -17 -41 0
-62 -59 -44 -20 -10 -66 -57 -42 -18 -8 -63 -41 -17 -7 -60 -14 -4 -45 -1 -21 -11 0
-66 -10 -20 -44 -59 -62 -11 -21 -45 -60 -63 -1 -4 -7 -8 -14 -17 -18 -41 -42 -57 0
-11 -21 -45 -60 -63 -66 -1 -4 -7 -8 -10 -14 -17 -18 -20 -41 -42 -44 -57 -59 -62 0
-66 -63 -60 -45 -21 -11 -62 -59 -44 -20 -10 -57 -42 -18 -8 -41 -17 -7 -14 -4 -1 0
-1 -4 -7 -9 -10 -11 -14 -17 -19 -20 -21 -41 -43 -44 -45 -58 -59 -60 -64 -65 -66 0
-11 -10 -9 -7 -4 -1 -66 -65 -60 -45 -21 -64 -59 -44 -20 -58 -43 -19 -41 -17 -14 0
-1 -21 -20 -19 -17 -14 -11 -10 -9 -7 -4 -66 -65 -60 -45 -64 -59 -44 -58 -43 -41 0
-14 -17 -19 -20 -21 -1 -41 -43 -44 -45 -4 -58 -59 -60 -7 -64 -65 -9 -66 -10 -11 0
-14 -4 -45 -44 -43 -41 -1 -21 -20 -19 -17 -11 -10 -9 -7 -66 -65 -60 -64 -59 -58 0
-41 -43 -44 -45 -4 -14 -58 -59 -60 -7 -17 -64 -65 -9 -19 -66 -10 -20 -11 -21 -1 0
-41 -17 -7 -60 -59 -58 -14 -4 -45 -44 -43 -1 -21 -20 -19 -11 -10 -9 -66 -65 -64 0
-58 -59 -60 -7 -17 -41 -64 -65 -9 -19 -43 -66 -10 -20 -44 -11 -21 -45 -1 -4 -14 0
-58 -43 -19 -9 -65 -64 -41 -17 -7 -60 -59 -14 -4 -45 -44 -1 -21 -20 -11 -10 -66 0
-64 -65 -9 -19 -43 -58 -66 -10 -20 -44 -59 -11 -21 -45 -60 -1 -4 -7 -14 -17 -41 0
-64 -59 -44 -20 -10 -66 -58 -43 -19 -9 -65 -41 -17 -7 -60 -14 -4 -45 -1 -21 -11 0
-66 -10 -20 -44 -59 -64 -11 -21 -45 -60 -65 -1 -4 -7 -9 -14 -17 -19 -41 -43 -58 0
-11 -21 -45 -60 -65 -66 -1 -4 -7 -9 -10 -14 -17 -19 -20 -41 -43 -44 -58 -59 -64 0
-66 -65 -60 -45 -21 -11 -64 -59 -44 -20 -10 -58 -43 -19 -9 -41 -17 -7 -14 -4 -1 0
-1 -4 -8 -9 -10 -11 -14 -18 -19 -20 -21 -42 -43 -44 -45 -61 -62 -63 -64 -65 -66 0
-11 -10 -9 -8 -4 -1 -66 -65 -63 -45 -21 -64 -62 -44 -20 -61 -43 -19 -42 -18 -14 0
-1 -21 -20 -19 -18 -14 -11 -10 -9 -8 -4 -66 -65 -63 -45 -64 -62 -44 -61 -43 -42 0
-14 -18 -19 -20 -21 -1 -42 -43 -44 -45 -4 -61 -62 -63 -8 -64 -65 -9 -66 -10 -11 0
-14 -4 -45 -44 -43 -42 -1 -21 -20 -19 -18 -11 -10 -9 -8 -66 -65 -63 -64 -62 -61 0
-42 -43 -44 -45 -4 -14 -61 -62 -63 -8 -18 -64 -65 -9 -19 -66 -10 -20 -11 -21 -1 0
-42 -18 -8 -63 -62 -61 -14 -4 -45 -44 -43 -1 -21 -20 -19 -11 -10 -9 -66 -65 -64 0
-61 -62 -63 -8 -18 -42 -64 -65 -9 -19 -43 -66 -10 -20 -44 -11 -21 -45 -1 -4 -14 0
-61 -43 -19 -9 -65 -64 -42 -18 -8 -63 -62 -14 -4 -45 -44 -1 -21 -20 -11 -10 -66 0
-64 -65 -9 -19 -43 -61 -66 -10 -20 -44 -62 -11 -21 -45 -63 -1 -4 -8 -14 -18 -42 0
-64 -62 -44 -20 -10 -66 -61 -43 -19 -9 -65 -42 -18 -8 -63 -14 -4 -45 -1 -21 -11 0
-66 -10 -20 -44 -62 -64 -11 -21 -45 -63 -65 -1 -4 -8 -9 -14 -18 -19 -42 -43 -61 0
-11 -21 -45 -63 -65 -66 -1 -4 -8 -9 -10 -14 -18 -19 -20 -42 -43 -44 -61 -62 -64 0
-66 -65 -63 -45 -21 -11 -64 -62 -44 -20 -10 -61 -43 -19 -9 -42 -18 -8 -14 -4 -1 0
-1 -5 -6 -7 -8 -9 -15 -16 -17 -18 -19 -46 -47 -48 -49 -52 -53 -54 -57 -58 -61 0
-9 -8 -7 -6 -5 -1 -61 -58 -54 -49 -19 -57 -53 -48 -18 -52 -47 -17 -46 -16 -15 0
-1 -19 -18 -17 -16 -15 -9 -8 -7 -6 -5 -61 -58 -54 -49 -57 -53 -48 -52 -47 -46 0
-15 -16 -17 -18 -19 -1 -46 -47 -48 -49 -5 -52 -53 -54 -6 -57 -58 -7 -61 -8 -9 0
-15 -5 -49 -48 -47 -46 -1 -19 -18 -17 -16 -9 -8 -7 -6 -61 -58 -54 -57 -53 -52 0
-46 -47 -48 -49 -5 -15 -52 -53 -54 -6 -16 -57 -58 -7 -17 -61 -8 -18 -9 -19 -1 0
-46 -16 -6 -54 -53 -52 -15 -5 -49 -48 -47 -1 -19 -18 -17 -9 -8 -7 -61 -58 -57 0
-52 -53 -54 -6 -16 -46 -57 -58 -7 -17 -47 -61 -8 -18 -48 -9 -19 -49 -1 -5 -15 0
-52 -47 -17 -7 -58 -57 -46 -16 -6 -54 -53 -15 -5 -49 -48 -1 -19 -18 -9 -8 -61 0
-57 -58 -7 -17 -47 -52 -61 -8 -18 -48 -53 -9 -19 -49 -54 -1 -5 -6 -15 -16 -46 0
-57 -53 -48 -18 -8 -61 -52 -47 -17 -7 -58 -46 -16 -6 -54 -15 -5 -49 -1 -19 -9 0
-61 -8 -18 -48 -53 -57 -9 -19 -49 -54 -58 -1 -5 -6 -7 -15 -16 -17 -46 -47 -52 0
-9 -19 -49 -54 -58 -61 -1 -5 -6 -7 -8 -15 -16 -17 -18 -46 -47 -48 -52 -53 -57 0
-61 -58 -54 -49 -19 -9 -57 -53 -48 -18 -8 -52 -47 -17 -7 -46 -16 -6 -15 -5 -1 0
-1 -5 -6 -7 -8 -10 -15 -16 -17 -18 -20 -46 -47 -48 -50 -52 -53 -55 -57 -59 -62 0
-10 -8 -7 -6 -5 -1 -62 -59 -55 -50 -20 -57 -53 -48 -18 -52 -47 -17 -46 -16 -15 0
-1 -20 -18 -17 -16 -15 -10 -8 -7 -6 -5 -62 -59 -55 -50 -57 -53 -48 -52 -47 -46 0
-15 -16 -17 -18 -20 -1 -46 -47 -48 -50 -5 -52 -53 -55 -6 -57 -59 -7 -62 -8 -10 0
-15 -5 -50 -48 -47 -46 -1 -20 -18 -17 -16 -10 -8 -7 -6 -62 -59 -55 -57 -53 -52 0
-46 -47 -48 -50 -5 -15 -52 -53 -55 -6 -16 -57 -59 -7 -17 -62 -8 -18 -10 -20 -1 0
-46 -16 -6 -55 -53 -52 -15 -5 -50 -48 -47 -1 -20 -18 -17 -10 -8 -7 -62 -59 -57 0
-52 -53 -55 -6 -16 -46 -57 -59 -7 -17 -47 -62 -8 -18 -48 -10 -20 -50 -1 -5 -15 0
-52 -47 -17 -7 -59 -57 -46 -16 -6 -55 -53 -15 -5 -50 -48 -1 -20 -18 -10 -8 -62 0
-57 -59 -7 -17 -47 -52 -62 -8 -18 -48 -53 -10 -20 -50 -55 -1 -5 -6 -15 -16 -46 0
-57 -53 -48 -18 -8 -62 -52 -47 -17 -7 -59 -46 -16 -6 -55 -15 -5 -50 -1 -20 -10 0
-62 -8 -18 -48 -53 -57 -10 -20 -50 -55 -59 -1 -5 -6 -7 -15 -16 -17 -46 -47 -52 0
-10 -20 -50 -55 -59 -62 -1 -5 -6 -7 -8 -15 -16 -17 -18 -46 -47 -48 -52 -53 -57 0
-62 -59 -55 -50 -20 -10 -57 -53 -48 -18 -8 -52 -47 -17 -7 -46 -16 -6 -15 -5 -1 0
-1 -5 -6 -7 -8 -11 -15 -16 -17 -18 -21 -46 -47 -48 -51 -52 -53 -56 -57 -60 -63 0
-11 -8 -7 -6 -5 -1 -63 -60 -56 -51 -21 -57 -53 -48 -18 -52 -47 -17 -46 -16 -15 0
-1 -21 -18 -17 -16 -15 -11 -8 -7 -6 -5 -63 -60 -56 -51 -57 -53 -48 -52 -47 -46 0
-15 -16 -17 -18 -21 -1 -46 -47 -48 -51 -5 -52 -53 -56 -6 -57 -60 -7 -63 -8 -11 0
-15 -5 -51 -48 -47 -46 -1 -21 -18 -17 -16 -11 -8 -7 -6 -63 -60 -56 -57 -53 -52 0
-46 -47 -48 -51 -5 -15 -52 -53 -56 -6 -16 -57 -60 -7 -17 -63 -8 -18 -11 -21 -1 0
-46 -16 -6 -56 -53 -52 -15 -5 -51 -48 -47 -1 -21 -18 -17 -11 -8 -7 -63 -60 -57 0
-52 -53 -56 -6 -16 -46 -57 -60 -7 -17 -47 -63 -8 -18 -48 -11 -21 -51 -1 -5 -15 0
-52 -47 -17 -7 -60 -57 -46 -16 -6 -56 -53 -15 -5 -51 -48 -1 -21 -18 -11 -8 -63 0
-57 -60 -7 -17 -47 -52 -63 -8 -18 -48 -53 -11 -21 -51 -56 -1 -5 -6 -15 -16 -46 0
-57 -53 -48 -18 -8 -63 -52 -47 -17 -7 -60 -46 -16 -6 -56 -15 -5 -51 -1 -21 -11 0
-63 -8 -18 -48 -53 -57 -11 -21 -51 -56 -60 -1 -5 -6 -7 -15 -16 -17 -46 -47 -52 0
-11 -21 -51 -56 -60 -63 -1 -5 -6 -7 -8 -15 -16 -17 -18 -46 -47 -48 -52 -53 -57 0
-63 -60 -56 -51 -21 -11 -57 -53 -48 -18 -8 -52 -47 -17 -7 -46 -16 -6 -15 -5 -1 0
-1 -5 -6 -7 -9 -10 -15 -16 -17 -19 -20 -46 -47 -49 -50 -52 -54 -55 -58 -59 -64 0
-10 -9 -7 -6 -5 -1 -64 -59 -55 -50 -20 -58 -54 -49 -19 -52 -47 -17 -46 -16 -15 0
-1 -20 -19 -17 -16 -15 -10 -9 -7 -6 -5 -64 -59 -55 -50 -58 -54 -49 -52 -47 -46 0
-15 -16 -17 -19 -20 -1 -46 -47 -49 -50 -5 -52 -54 -55 -6 -58 -59 -7 -64 -9 -10 0
-15 -5 -50 -49 -47 -46 -1 -20 -19 -17 -16 -10 -9 -7 -6 -64 -59 -55 -58 -54 -52 0
-46 -47 -49 -50 -5 -15 -52 -54 -55 -6 -16 -58 -59 -7 -17 -64 -9 -19 -10 -20 -1 0
-46 -16 -6 -55 -54 -52 -15 -5 -50 -49 -47 -1 -20 -19 -17 -10 -9 -7 -64 -59 -58 0
-52 -54 -55 -6 -16 -46 -58 -59 -7 -17 -47 -64 -9 -19 -49 -10 -20 -50 -1 -5 -15 0
-52 -47 -17 -7 -59 -58 -46 -16 -6 -55 -54 -15 -5 -50 -49 -1 -20 -19 -10 -9 -64 0
-58 -59 -7 -17 -47 -52 -64 -9 -19 -49 -54 -10 -20 -50 -55 -1 -5 -6 -15 -16 -46 0
-58 -54 -49 -19 -9 -64 -52 -47 -17 -7 -59 -46 -16 -6 -55 -15 -5 -50 -1 -20 -10 0
-64 -9 -19 -49 -54 -58 -10 -20 -50 -55 -59 -1 -5 -6 -7 -15 -16 -17 -46 -47 -52 0
-10 -20 -50 -55 -59 -64 -1 -5 -6 -7 -9 -15 -16 -17 -19 -46 -47 -49 -52 -54 -58 0
-64 -59 -55 -50 -20 -10 -58 -54 -49 -19 -9 -52 -47 -17 -7 -46 -16 -6 -15 -5 -1 0
-1 -5 -6 -7 -9 -11 -15 -16 -17 -19 -21 -46 -47 -49 -51 -52 -54 -56 -58 -60 -65 0
-11 -9 -7 -6 -5 -1 -65 -60 -56 -51 -21 -58 -54 -49 -19 -52 -47 -17 -46 -16 -15 0
-1 -21 -19 -17 -16 -15 -11 -9 -7 -6 -5 -65 -60 -56 -51 -58 -54 -49 -52 -47 -46 0
-15 -16 -17 -19 -21 -1 -46 -47 -49 -51 -5 -52 -54 -56 -6 -58 -60 -7 -65 -9 -11 0
-15 -5 -51 -49 -47 -46 -1 -21 -19 -17 -16 -11 -9 -7 -6 -65 -60 -56 -58 -54 -52 0
-46 -47 -49 -51 -5 -15 -52 -54 -56 -6 -16 -58 -60 -7 -17 -65 -9 -19 -11 -21 -1 0
-46 -16 -6 -56 -54 -52 -15 -5 -51 -49 -47 -1 -21 -19 -17 -11 -9 -7 -65 -60 -58 0
-52 -54 -56 -6 -16 -46 -58 -60 -7 -17 -47 -65 -9 -19 -49 -11 -21 -51 -1 -5 -15 0
-52 -47 -17 -7 -60 -58 -46 -16 -6 -56 -54 -15 -5 -51 -49 -1 -21 -19 -11 -9 -65 0
-58 -60 -7 -17 -47 -52 -65 -9 -19 -49 -54 -11 -21 -51 -56 -1 -5 -6 -15 -16 -46 0
-58 -54 -49 -19 -9 -65 -52 -47 -17 -7 -60 -46 -16 -6 -56 -15 -5 -51 -1 -21 -11 0
-65 -9 -19 -49 -54 -58 -11 -21 -51 -56 -60 -1 -5 -6 -7 -15 -16 -17 -46 -47 -52 0
-11 -21 -51 -56 -60 -65 -1 -5 -6 -7 -9 -15 -16 -17 -19 -46 -47 -49 -52 -54 -58 0
-65 -60 -56 -51 -21 -11 -58 -54 -49 -19 -9 -52 -47 -17 -7 -46 -16 -6 -15 -5 -1 0
-1 -5 -6 -7 -10 -11 -15 -16 -17 -20 -21 -46 -47 -50 -51 -52 -55 -56 -59 -60 -66 0
-11 -10 -7 -6 -5 -1 -66 -60 -56 -51 -21 -59 -55 -50 -20 -52 -47 -17 -46 -16 -15 0
-1 -21 -20 -17 -16 -15 -11 -10 -7 -6 -5 -66 -60 -56 -51 -59 -55 -50 -52 -47 -46 0
-15 -16 -17 -20 -21 -1 -46 -47 -50 -51 -5 -52 -55 -56 -6 -59 -60 -7 -66 -10 -11 0
-15 -5 -51 -50 -47 -46 -1 -21 -20 -17 -16 -11 -10 -7 -6 -66 -60 -56 -59 -55 -52 0
-46 -47 -50 -51 -5 -15 -52 -55 -56 -6 -16 -59 -60 -7 -17 -66 -10 -20 -11 -21 -1 0
-46 -16 -6 -56 -55 -52 -15 -5 -51 -50 -47 -1 -21 -20 -17 -11 -10 -7 -66 -60 -59 0
-52 -55 -56 -6 -16 -46 -59 -60 -7 -17 -47 -66 -10 -20 -50 -11 -21 -51 -1 -5 -15 0
-52 -47 -17 -7 -60 -59 -46 -16 -6 -56 -55 -15 -5 -51 -50 -1 -21 -20 -11 -10 -66 0
-59 -60 -7 -17 -47 -52 -66 -10 -20 -50 -55 -11 -21 -51 -56 -1 -5 -6 -15 -16 -46 0
-59 -55 -50 -20 -10 -66 -52 -47 -17 -7 -60 -46 -16 -6 -56 -15 -5 -51 -1 -21 -11 0
-66 -10 -20 -50 -55 -59 -11 -21 -51 -56 -60 -1 -5 -6 -7 -15 -16 -17 -46 -47 -52 0
-11 -21 -51 -56 -60 -66 -1 -5 -6 -7 -10 -15 -16 -17 -20 -46 -47 -50 -52 -55 -59 0
-66 -60 -56 -51 -21 -11 -59 -55 -50 -20 -10 -52 -47 -17 -7 -46 -16 -6 -15 -5 -1 0
-1 -5 -6 -8 -9 -10 -15 -16 -18 -19 -20 -46 -48 -49 -50 -53 -54 -55 -61 -62 -64 0
-10 -9 -8 -6 -5 -1 -64 -62 -55 -50 -20 -61 -54 -49 -19 -53 -48 -18 -46 -16 -15 0
-1 -20 -19 -18 -16 -15 -10 -9 -8 -6 -5 -64 -62 -55 -50 -61 -54 -49 -53 -48 -46 0
-15 -16 -18 -19 -20 -1 -46 -48 -49 -50 -5 -53 -54 -55 -6 -61 -62 -8 -64 -9 -10 0
-15 -5 -50 -49 -48 -46 -1 -20 -19 -18 -16 -10 -9 -8 -6 -64 -62 -55 -61 -54 -53 0
-46 -48 -49 -50 -5 -15 -53 -54 -55 -6 -16 -61 -62 -8 -18 -64 -9 -19 -10 -20 -1 0
-46 -16 -6 -55 -54 -53 -15 -5 -50 -49 -48 -1 -20 -19 -18 -10 -9 -8 -64 -62 -61 0
-53 -54 -55 -6 -16 -46 -61 -62 -8 -18 -48 -64 -9 -19 -49 -10 -20 -50 -1 -5 -15 0
-53 -48 -18 -8 -62 -61 -46 -16 -6 -55 -54 -15 -5 -50 -49 -1 -20 -19 -10 -9 -64 0
-61 -62 -8 -18 -48 -53 -64 -9 -19 -49 -54 -10 -20 -50 -55 -1 -5 -6 -15 -16 -46 0
-61 -54 -49 -19 -9 -64 -53 -48 -18 -8 -62 -46 -16 -6 -55 -15 -5 -50 -1 -20 -10 0
-64 -9 -19 -49 -54 -61 -10 -20 -50 -55 -62 -1 -5 -6 -8 -15 -16 -18 -46 -48 -53 0
-10 -20 -50 -55 -62 -64 -1 -5 -6 -8 -9 -15 -16 -18 -19 -46 -48 -49 -53 -54 -61 0
-64 -62 -55 -50 -20 -10 -61 -54 -49 -19 -9 -53 -48 -18 -8 -46 -16 -6 -15 -5 -1 0
-1 -5 -6 -8 -9 -11 -15 -16 -18 -19 -21 -46 -48 -49 -51 -53 -54 -56 -61 -63 -65 0
-11 -9 -8 -6 -5 -1 -65 -63 -56 -51 -21 -61 -54 -49 -19 -53 -48 -18 -46 -16 -15 0
-1 -21 -19 -18 -16 -15 -11 -9 -8 -6 -5 -65 -63 -56 -51 -61 -54 -49 -53 -48 -46 0
-15 -16 -18 -19 -21 -1 -46 -48 -49 -51 -5 -53 -54 -56 -6 -61 -63 -8 -65 -9 -11 0
-15 -5 -51 -49 -48 -46 -1 -21 -19 -18 -16 -11 -9 -8 -6 -65 -63 -56 -61 -54 -53 0
-46 -48 -49 -51 -5 -15 -53 -54 -56 -6 -16 -61 -63 -8 -18 -65 -9 -19 -11 -21 -1 0
-46 -16 -6 -56 -54 -53 -15 -5 -51 -49 -48 -1 -21 -19 -18 -11 -9 -8 -65 -63 -61 0
-53 -54 -56 -6 -16 -46 -61 -63 -8 -18 -48 -65 -9 -19 -49 -11 -21 -51 -1 -5 -15 0
-53 -48 -18 -8 -63 -61 -46 -16 -6 -56 -54 -15 -5 -51 -49 -1 -21 -19 -11 -9 -65 0
-61 -63 -8 -18 -48 -53 -65 -9 -19 -49 -54 -11 -21 -51 -56 -1 -5 -6 -15 -16 -46 0
-61 -54 -49 -19 -9 -65 -53 -48 -18 -8 -63 -46 -16 -6 -56 -15 -5 -51 -1 -21 -11 0
-65 -9 -19 -49 -54 -61 -11 -21 -51 -56 -63 -1 -5 -6 -8 -15 -16 -18 -46 -48 -53 0
-11 -21 -51 -56 -63 -65 -1 -5 -6 -8 -9 -15 -16 -18 -19 -46 -48 -49 -53 -54 -61 0
-65 -63 -56 -51 -21 -11 -61 -54 -49 -19 -9 -53 -48 -18 -8 -46 -16 -6 -15 -5 -1 0
-1 -5 -6 -8 -10 -11 -15 -16 -18 -20 -21 -46 -48 -50 -51 -53 -55 -56 -62 -63 -66 0
-11 -10 -8 -6 -5 -1 -66 -63 -56 -51 -21 -62 -55 -50 -20 -53 -48 -18 -46 -16 -15 0
-1 -21 -20 -18 -16 -15 -11 -10 -8 -6 -5 -66 -63 -56 -51 -62 -55 -50 -53 -48 -46 0
-15 -16 -18 -20 -21 -1 -46 -48 -50 -51 -5 -53 -55 -56 -6 -62 -63 -8 -66 -10 -11 0
-15 -5 -51 -50 -48 -46 -1 -21 -20 -18 -16 -11 -10 -8 -6 -66 -63 -56 -62 -55 -53 0
-46 -48 -50 -51 -5 -15 -53 -55 -56 -6 -16 -62 -63 -8 -18 -66 -10 -20 -11 -21 -1 0
-46 -16 -6 -56 -55 -53 -15 -5 -51 -50 -48 -1 -21 -20 -18 -11 -10 -8 -66 -63 -62 0
-53 -55 -56 -6 -16 -46 -62 -63 -8 -18 -48 -66 -10 -20 -50 -11 -21 -51 -1 -5 -15 0
-53 -48 -18 -8 -63 -62 -46 -16 -6 -56 -55 -15 -5 -51 -50 -1 -21 -20 -11 -10 -66 0
-62 -63 -8 -18 -48 -53 -66 -10 -20 -50 -55 -11 -21 -51 -56 -1 -5 -6 -15 -16 -46 0
-62 -55 -50 -20 -10 -66 -53 -48 -18 -8 -63 -46 -16 -6 -56 -15 -5 -51 -1 -21 -11 0
-66 -10 -20 -50 -55 -62 -11 -21 -51 -56 -63 -1 -5 -6 -8 -15 -16 -18 -46 -48 -53 0
-11 -21 -51 -56 -63 -66 -1 -5 -6 -8 -10 -15 -16 -18 -20 -46 -48 -50 -53 -55 -62 0
-66 -63 -56 -51 -21 -11 -62 -55 -50 -20 -10 -53 -48 -18 -8 -46 -16 -6 -15 -5 -1 0
-1 -5 -6 -9 -10 -11 -15 -16 -19 -20 -21 -46 -49 -50 -51 -54 -55 -56 -64 -65 -66 0
-11 -10 -9 -6 -5 -1 -66 -65 -56 -51 -21 -64 -55 -50 -20 -54 -49 -19 -46 -16 -15 0
-1 -21 -20 -19 -16 -15 -11 -10 -9 -6 -5 -66 -65 -56 -51 -64 -55 -50 -54 -49 -46 0
-15 -16 -19 -20 -21 -1 -46 -49 -50 -51 -5 -54 -55 -56 -6 -64 -65 -9 -66 -10 -11 0
-15 -5 -51 -50 -49 -46 -1 -21 -20 -19 -16 -11 -10 -9 -6 -66 -65 -56 -64 -55 -54 0
-46 -49 -50 -51 -5 -15 -54 -55 -56 -6 -16 -64 -65 -9 -19 -66 -10 -20 -11 -21 -1 0
-46 -16 -6 -56 -55 -54 -15 -5 -51 -50 -49 -1 -21 -20 -19 -11 -10 -9 -66 -65 -64 0
-54 -55 -56 -6 -16 -46 -64 -65 -9 -19 -49 -66 -10 -20 -50 -11 -21 -51 -1 -5 -15 0
-54 -49 -19 -9 -65 -64 -46 -16 -6 -56 -55 -15 -5 -51 -50 -1 -21 -20 -11 -10 -66 0
-64 -65 -9 -19 -49 -54 -66 -10 -20 -50 -55 -11 -21 -51 -56 -1 -5 -6 -15 -16 -46 0
-64 -55 -50 -20 -10 -66 -54 -49 -19 -9 -65 -46 -16 -6 -56 -15 -5 -51 -1 -21 -11 0
-66 -10 -20 -50 -55 -64 -11 -21 -51 -56 -65 -1 -5 -6 -9 -15 -16 -19 -46 -49 -54 0
-11 -21 -51 -56 -65 -66 -1 -5 -6 -9 -10 -15 -16 -19 -20 -46 -49 -50 -54 -55 -64 0
-66 -65 -56 -51 -21 -11 -64 -55 -50 -20 -10 -54 -49 -19 -9 -46 -16 -6 -15 -5 -1 0
-1 -5 -7 -8 -9 -10 -15 -17 -18 -19 -20 -47 -48 -49 -50 -57 -58 -59 -61 -62 -64 0
-10 -9 -8 -7 -5 -1 -64 -62 -59 -50 -20 -61 -58 -49 -19 -57 -48 -18 -47 -17 -15 0
-1 -20 -19 -18 -17 -15 -10 -9 -8 -7 -5 -64 -62 -59 -50 -61 -58 -49 -57 -48 -47 0
-15 -17 -18 -19 -20 -1 -47 -48 -49 -50 -5 -57 -58 -59 -7 -61 -62 -8 -64 -9 -10 0
-15 -5 -50 -49 -48 -47 -1 -20 -19 -18 -17 -10 -9 -8 -7 -64 -62 -59 -61 -58 -57 0
-47 -48 -49 -50 -5 -15 -57 -58 -59 -7 -17 -61 -62 -8 -18 -64 -9 -19 -10 -20 -1 0
-47 -17 -7 -59 -58 -57 -15 -5 -50 -49 -48 -1 -20 -19 -18 -10 -9 -8 -64 -62 -61 0
-57 -58 -59 -7 -17 -47 -61 -62 -8 -18 -48 -64 -9 -19 -49 -10 -20 -50 -1 -5 -15 0
-57 -48 -18 -8 -62 -61 -47 -17 -7 -59 -58 -15 -5 -50 -49 -1 -20 -19 -10 -9 -64 0
-61 -62 -8 -18 -48 -57 -64 -9 -19 -49 -58 -10 -20 -50 -59 -1 -5 -7 -15 -17 -47 0
-61 -58 -49 -19 -9 -64 -57 -48 -18 -8 -62 -47 -17 -7 -59 -15 -5 -50 -1 -20 -10 0
-64 -9 -19 -49 -58 -61 -10 -20 -50 -59 -62 -1 -5 -7 -8 -15 -17 -18 -47 -48 -57 0
-10 -20 -50 -59 -62 -64 -1 -5 -7 -8 -9 -15 -17 -18 -19 -47 -48 -49 -57 -58 -61 0
-64 -62 -59 -50 -20 -10 -61 -58 -49 -19 -9 -57 -48 -18 -8 -47 -17 -7 -15 -5 -1 0
-1 -5 -7 -8 -9 -11 -15 -17 -18 -19 -21 -47 -48 -49 -51 -57 -58 -60 -61 -63 -65 0
-11 -9 -8 -7 -5 -1 -65 -63 -60 -51 -21 -61 -58 -49 -19 -57 -48 -18 -47 -17 -15 0
-1 -21 -19 -18 -17 -15 -11 -9 -8 -7 -5 -65 -63 -60 -51 -61 -58 -49 -57 -48 -47 0
-15 -17 -18 -19 -21 -1 -47 -48 -49 -51 -5 -57 -58 -60 -7 -61 -63 -8 -65 -9 -11 0
-15 -5 -51 -49 -48 -47 -1 -21 -19 -18 -17 -11 -9 -8 -7 -65 -63 -60 -61 -58 -57 0
-47 -48 -49 -51 -5 -15 -57 -58 -60 -7 -17 -61 -63 -8 -18 -65 -9 -19 -11 -21 -1 0
-47 -17 -7 -60 -58 -57 -15 -5 -51 -49 -48 -1 -21 -19 -18 -11 -9 -8 -65 -63 -61 0
-57 -58 -60 -7 -17 -47 -61 -63 -8 -18 -48 -65 -9 -19 -49 -11 -21 -51 -1 -5 -15 0
-57 -48 -18 -8 -63 -61 -47 -17 -7 -60 -58 -15 -5 -51 -49 -1 -21 -19 -11 -9 -65 0
-61 -63 -8 -18 -48 -57 -65 -9 -19 -49 -58 -11 -21 -51 -60 -1 -5 -7 -15 -17 -47 0
-61 -58 -49 -19 -9 -65 -57 -48 -18 -8 -63 -47 -17 -7 -60 -15 -5 -51 -1 -21 -11 0
-65 -9 -19 -49 -58 -61 -11 -21 -51 -60 -63 -1 -5 -7 -8 -15 -17 -18 -47 -48 -57 0
-11 -21 -51 -60 -63 -65 -1 -5 -7 -8 -9 -15 -17 -18 -19 -47 -48 -49 -57 -58 -61 0
-65 -63 -60 -51 -21 -11 -61 -58 -49 -19 -9 -57 -48 -18 -8 -47 -17 -7 -15 -5 -1 0
-1 -5 -7 -8 -10 -11 -15 -17 -18 -20 -21 -47 -48 -50 -51 -57 -59 -60 -62 -63 -66 0
-11 -10 -8 -7 -5 -1 -66 -63 -60 -51 -21 -62 -59 -50 -20 -57 -48 -18 -47 -17 -15 0
-1 -21 -20 -18 -17 -15 -11 -10 -8 -7 -5 -66 -63 -60 -51 -62 -59 -50 -57 -48 -47 0
-15 -17 -18 -20 -21 -1 -47 -48 -50 -51 -5 -57 -59 -60 -7 -62 -63 -8 -66 -10 -11 0
-15 -5 -51 -50 -48 -47 -1 -21 -20 -18 -17 -11 -10 -8 -7 -66 -63 -60 -62 -59 -57 0
-47 -48 -50 -51 -5 -15 -57 -59 -60 -7 -17 -62 -63 -8 -18 -66 -10 -20 -11 -21 -1 0
-47 -17 -7 -60 -59 -57 -15 -5 -51 -50 -48 -1 -21 -20 -18 -11 -10 -8 -66 -63 -62 0
-57 -59 -60 -7 -17 -47 -62 -63 -8 -18 -48 -66 -10 -20 -50 -11 -21 -51 -1 -5 -15 0
-57 -48 -18 -8 -63 -62 -47 -17 -7 -60 -59 -15 -5 -51 -50 -1 -21 -20 -11 -10 -66 0
-62 -63 -8 -18 -48 -57 -66 -10 -20 -50 -59 -11 -21 -51 -60 -1 -5 -7 -15 -17 -47 0
-62 -59 -50 -20 -10 -66 -57 -48 -18 -8 -63 -47 -17 -7 -60 -15 -5 -51 -1 -21 -11 0
-66 -10 -20 -50 -59 -62 -11 -21 -51 -60 -63 -1 -5 -7 -8 -15 -17 -18 -47 -48 -57 0
-11 -21 -51 -60 -63 -66 -1 -5 -7 -8 -10 -15 -17 -18 -20 -47 -48 -50 -57 -59 -62 0
-66 -63 -60 -51 -21 -11 -62 -59 -50 -20 -10 -57 -48 -18 -8 -47 -17 -7 -15 -5 -1 0
-1 -5 -7 -9 -10 -11 -15 -17 -19 -20 -21 -47 -49 -50 -51 -58 -59 -60 -64 -65 -66 0
-11 -10 -9 -7 -5 -1 -66 -65 -60 -51 -21 -64 -59 -50 -20 -58 -49 -19 -47 -17 -15 0
-1 -21 -20 -19 -17 -15 -11 -10 -9 -7 -5 -66 -65 -60 -51 -64 -59 -50 -58 -49 -47 0
-15 -17 -19 -20 -21 -1 -47 -49 -50 -51 -5 -58 -59 -60 -7 -64 -65 -9 -66 -10 -11 0
-15 -5 -51 -50 -49 -47 -1 -21 -20 -19 -17 -11 -10 -9 -7 -66 -65 -60 -64 -59 -58 0
-47 -49 -50 -51 -5 -15 -58 -59 -60 -7 -17 -64 -65 -9 -19 -66 -10 -20 -11 -21 -1 0
-47 -17 -7 -60 -59 -58 -15 -5 -51 -50 -49 -1 -21 -20 -19 -11 -10 -9 -66 -65 -64 0
-58 -59 -60 -7 -17 -47 -64 -65 -9 -19 -49 -66 -10 -20 -50 -11 -21 -51 -1 -5 -15 0
-58 -49 -19 -9 -65 -64 -47 -17 -7 -60 -59 -15 -5 -51 -50 -1 -21 -20 -11 -10 -66 0
-64 -65 -9 -19 -49 -58 -66 -10 -20 -50 -59 -11 -21 -51 -60 -1 -5 -7 -15 -17 -47 0
-64 -59 -50 -20 -10 -66 -58 -49 -19 -9 -65 -47 -17 -7 -60 -15 -5 -51 -1 -21 -11 0
-66 -10 -20 -50 -59 -64 -11 -21 -51 -60 -65 -1 -5 -7 -9 -15 -17 -19 -47 -49 -58 0
-11 -21 -51 -60 -65 -66 -1 -5 -7 -9 -10 -15 -17 -19 -20 -47 -49 -50 -58 -59 -64 0
-66 -65 -60 -51 -21 -11 -64 -59 -50 -20 -10 -58 -49 -19 -9 -47 -17 -7 -15 -5 -1 0
-1 -5 -8 -9 -10 -11 -15 -18 -19 -20 -21 -48 -49 -50 -51 -61 -62 -63 -64 -65 -66 0
-11 -10 -9 -8 -5 -1 -66 -65 -63 -51 -21 -64 -62 -50 -20 -61 -49 -19 -48 -18 -15 0
-1 -21 -20 -19 -18 -15 -11 -10 -9 -8 -5 -66 -65 -63 -51 -64 -62 -50 -61 -49 -48 0
-15 -18 -19 -20 -21 -1 -48 -49 -50 -51 -5 -61 -62 -63 -8 -64 -65 -9 -66 -10 -11 0
-15 -5 -51 -50 -49 -48 -1 -21 -20 -19 -18 -11 -10 -9 -8 -66 -65 -63 -64 -62 -61 0
-48 -49 -50 -51 -5 -15 -61 -62 -63 -8 -18 -64 -65 -9 -19 -66 -10 -20 -11 -21 -1 0
-48 -18 -8 -63 -62 -61 -15 -5 -51 -50 -49 -1 -21 -20 -19 -11 -10 -9 -66 -65 -64 0
-61 -62 -63 -8 -18 -48 -64 -65 -9 -19 -49 -66 -10 -20 -50 -11 -21 -51 -1 -5 -15 0
-61 -49 -19 -9 -65 -64 -48 -18 -8 -63 -62 -15 -5 -51 -50 -1 -21 -20 -11 -10 -66 0
-64 -65 -9 -19 -49 -61 -66 -10 -20 -50 -62 -11 -21 -51 -63 -1 -5 -8 -15 -18 -48 0
-64 -62 -50 -20 -10 -66 -61 -49 -19 -9 -65 -48 -18 -8 -63 -15 -5 -51 -1 -21 -11 0
-66 -10 -20 -50 -62 -64 -11 -21 -51 -63 -65 -1 -5 -8 -9 -15 -18 -19 -48 -49 -61 0
-11 -21 -51 -63 -65 -66 -1 -5 -8 -9 -10 -15 -18 -19 -20 -48 -49 -50 -61 -62 -64 0
-66 -65 -63 -51 -21 -11 -64 -62 -50 -20 -10 -61 -49 -19 -9 -48 -18 -8 -15 -5 -1 0
-1 -6 -7 -8 -9 -10 -16 -17 -18 -19 -20 -52 -53 -54 -55 -57 -58 -59 -61 -62 -64 0
-10 -9 -8 -7 -6 -1 -64 -62 -59 -55 -20 -61 -58 -54 -19 -57 -53 -18 -52 -17 -16 0
-1 -20 -19 -18 -17 -16 -10 -9 -8 -7 -6 -64 -62 -59 -55 -61 -58 -54 -57 -53 -52 0
-16 -17 -18 -19 -20 -1 -52 -53 -54 -55 -6 -57 -58 -59 -7 -61 -62 -8 -64 -9 -10 0
-16 -6 -55 -54 -53 -52 -1 -20 -19 -18 -17 -10 -9 -8 -7 -64 -62 -59 -61 -58 -57 0
-52 -53 -54 -55 -6 -16 -57 -58 -59 -7 -17 -61 -62 -8 -18 -64 -9 -19 -10 -20 -1 0
-52 -17 -7 -59 -58 -57 -16 -6 -55 -54 -53 -1 -20 -19 -18 -10 -9 -8 -64 -62 -61 0
-57 -58 -59 -7 -17 -52 -61 -62 -8 -18 -53 -64 -9 -19 -54 -10 -20 -55 -1 -6 -16 0
-57 -53 -18 -8 -62 -61 -52 -17 -7 -59 -58 -16 -6 -55 -54 -1 -20 -19 -10 -9 -64 0
-61 -62 -8 -18 -53 -57 -64 -9 -19 -54 -58 -10 -20 -55 -59 -1 -6 -7 -16 -17 -52 0
-61 -58 -54 -19 -9 -64 -57 -53 -18 -8 -62 -52 -17 -7 -59 -16 -6 -55 -1 -20 -10 0
-64 -9 -19 -54 -58 -61 -10 -20 -55 -59 -62 -1 -6 -7 -8 -16 -17 -18 -52 -53 -57 0
-10 -20 -55 -59 -62 -64 -1 -6 -7 -8 -9 -16 -17 -18 -19 -52 -53 -54 -57 -58 -61 0
-64 -62 -59 -55 -20 -10 -61 -58 -54 -19 -9 -57 -53 -18 -8 -52 -17 -7 -16 -6 -1 0
-1 -6 -7 -8 -9 -11 -16 -17 -18 -19 -21 -52 -53 -54 -56 -57 -58 -60 -61 -63 -65 0
-11 -9 -8 -7 -6 -1 -65 -63 -60 -56 -21 -61 -58 -54 -19 -57 -53 -18 -52 -17 -16 0
-1 -21 -19 -18 -17 -16 -11 -9 -8 -7 -6 -65 -63 -60 -56 -61 -58 -54 -57 -53 -52 0
-16 -17 -18 -19 -21 -1 -52 -53 -54 -56 -6 -57 -58 -60 -7 -61 -63 -8 -65 -9 -11 0
-16 -6 -56 -54 -53 -52 -1 -21 -19 -18 -17 -11 -9 -8 -7 -65 -63 -60 -61 -58 -57 0
-52 -53 -54 -56 -6 -16 -57 -58 -60 -7 -17 -61 -63 -8 -18 -65 -9 -19 -11 -21 -1 0
-52 -17 -7 -60 -58 -57 -16 -6 -56 -54 -53 -1 -21 -19 -18 -11 -9 -8 -65 -63 -61 0
-57 -58 -60 -7 -17 -52 -61 -63 -8 -18 -53 -65 -9 -19 -54 -11 -21 -56 -1 -6 -16 0
-57 -53 -18 -8 -63 -61 -52 -17 -7 -60 -58 -16 -6 -56 -54 -1 -21 -19 -11 -9 -65 0
-61 -63 -8 -18 -53 -57 -65 -9 -19 -54 -58 -11 -21 -56 -60 -1 -6 -7 -16 -17 -52 0
-61 -58 -54 -19 -9 -65 -57 -53 -18 -8 -63 -52 -17 -7 -60 -16 -6 -56 -1 -21 -11 0
-65 -9 -19 -54 -58 -61 -11 -21 -56 -60 -63 -1 -6 -7 -8 -16 -17 -18 -52 -53 -57 0
-11 -21 -56 -60 -63 -65 -1 -6 -7 -8 -9 -16 -17 -18 -19 -52 -53 -54 -57 -58 -61 0
-65 -63 -60 -56 -21 -11 -61 -58 -54 -19 -9 -57 -53 -18 -8 -52 -17 -7 -16 -6 -1 0
-1 -6 -7 -8 -10 -11 -16 -17 -18 -20 -21 -52 -53 -55 -56 -57 -59 -60 -62 -63 -66 0
-11 -10 -8 -7 -6 -1 -66 -63 -60 -56 -21 -62 -59 -55 -20 -57 -53 -18 -52 -17 -16 0
-1 -21 -20 -18 -17 -16 -11 -10 -8 -7 -6 -66 -63 -60 -56 -62 -59 -55 -57 -53 -52 0
-16 -17 -18 -20 -21 -1 -52 -53 -55 -56 -6 -57 -59 -60 -7 -62 -63 -8 -66 -10 -11 0
-16 -6 -56 -55 -53 -52 -1 -21 -20 -18 -17 -11 -10 -8 -7 -66 -63 -60 -62 -59 -57 0
-52 -53 -55 -56 -6 -16 -57 -59 -60 -7 -17 -62 -63 -8 -18 -66 -10 -20 -11 -21 -1 0
-52 -17 -7 -60 -59 -57 -16 -6 -56 -55 -53 -1 -21 -20 -18 -11 -10 -8 -66 -63 -62 0
-57 -59 -60 -7 -17 -52 -62 -63 -8 -18 -53 -66 -10 -20 -55 -11 -21 -56 -1 -6 -16 0
-57 -53 -18 -8 -63 -62 -52 -17 -7 -60 -59 -16 -6 -56 -55 -1 -21 -20 -11 -10 -66 0
-62 -63 -8 -18 -53 -57 -66 -10 -20 -55 -59 -11 -21 -56 -60 -1 -6 -7 -16 -17 -52 0
-62 -59 -55 -20 -10 -66 -57 -53 -18 -8 -63 -52 -17 -7 -60 -16 -6 -56 -1 -21 -11 0
-66 -10 -20 -55 -59 -62 -11 -21 -56 -60 -63 -1 -6 -7 -8 -16 -17 -18 -52 -53 -57 0
-11 -21 -56 -60 -63 -66 -1 -6 -7 -8 -10 -16 -17 -18 -20 -52 -53 -55 -57 -59 -62 0
-66 -63 -60 -56 -21 -11 -62 -59 -55 -20 -10 -57 -53 -18 -8 -52 -17 -7 -16 -6 -1 0
-1 -6 -7 -9 -10 -11 -16 -17 -19 -20 -21 -52 -54 -55 -56 -58 -59 -60 -64 -65 -66 0
-11 -10 -9 -7 -6 -1 -66 -65 -60 -56 -21 -64 -59 -55 -20 -58 -54 -19 -52 -17 -16 0
-1 -21 -20 -19 -17 -16 -11 -10 -9 -7 -6 -66 -65 -60 -56 -64 -59 -55 -58 -54 -52 0
-16 -17 -19 -20 -21 -1 -52 -54 -55 -56 -6 -58 -59 -60 -7 -64 -65 -9 -66 -10 -11 0
-16 -6 -56 -55 -54 -52 -1 -21 -20 -19 -17 -11 -10 -9 -7 -66 -65 -60 -64 -59 -58 0
-52 -54 -55 -56 -6 -16 -58 -59 -60 -7 -17 -64 -65 -9 -19 -66 -10 -20 -11 -21 -1 0
-52 -17 -7 -60 -59 -58 -16 -6 -56 -55 -54 -1 -21 -20 -19 -11 -10 -9 -66 -65 -64 0
-58 -59 -60 -7 -17 -52 -64 -65 -9 -19 -54 -66 -10 -20 -55 -11 -21 -56 -1 -6 -16 0
-58 -54 -19 -9 -65 -64 -52 -17 -7 -60 -59 -16 -6 -56 -55 -1 -21 -20 -11 -10 -66 0
-64 -65 -9 -19 -54 -58 -66 -10 -20 -55 -59 -11 -21 -56 -60 -1 -6 -7 -16 -17 -52 0
-64 -59 -55 -20 -10 -66 -58 -54 -19 -9 -65 -52 -17 -7 -60 -16 -6 -56 -1 -21 -11 0
-66 -10 -20 -55 -59 -64 -11 -21 -56 -60 -65 -1 -6 -7 -9 -16 -17 -19 -52 -54 -58 0
-11 -21 -56 -60 -65 -66 -1 -6 -7 -9 -10 -16 -17 -19 -20 -52 -54 -55 -58 -59 -64 0
-66 -65 -60 -56 -21 -11 -64 -59 -55 -20 -10 -58 -54 -19 -9 -52 -17 -7 -16 -6 -1 0
-1 -6 -8 -9 -10 -11 -16 -18 -19 -20 -21 -53 -54 -55 -56 -61 -62 -63 -64 -65 -66 0
-11 -10 -9 -8 -6 -1 -66 -65 -63 -56 -21 -64 -62 -55 -20 -61 -54 -19 -53 -18 -16 0
-1 -21 -20 -19 -18 -16 -11 -10 -9 -8 -6 -66 -65 -63 -56 -64 -62 -55 -61 -54 -53 0
-16 -18 -19 -20 -21 -1 -53 -54 -55 -56 -6 -61 -62 -63 -8 -64 -65 -9 -66 -10 -11 0
-16 -6 -56 -55 -54 -53 -1 -21 -20 -19 -18 -11 -10 -9 -8 -66 -65 -63 -64 -62 -61 0
-53 -54 -55 -56 -6 -16 -61 -62 -63 -8 -18 -64 -65 -9 -19 -66 -10 -20 -11 -21 -1 0
-53 -18 -8 -63 -62 -61 -16 -6 -56 -55 -54 -1 -21 -20 -19 -11 -10 -9 -66 -65 -64 0
-61 -62 -63 -8 -18 -53 -64 -65 -9 -19 -54 -66 -10 -20 -55 -11 -21 -56 -1 -6 -16 0
-61 -54 -19 -9 -65 -64 -53 -18 -8 -63 -62 -16 -6 -56 -55 -1 -21 -20 -11 -10 -66 0
-64 -65 -9 -19 -54 -61 -66 -10 -20 -55 -62 -11 -21 -56 -63 -1 -6 -8 -16 -18 -53 0
-64 -62 -55 -20 -10 -66 -61 -54 -19 -9 -65 -53 -18 -8 -63 -16 -6 -56 -1 -21 -11 0
-66 -10 -20 -55 -62 -64 -11 -21 -56 -63 -65 -1 -6 -8 -9 -16 -18 -19 -53 -54 -61 0
-11 -21 -56 -63 -65 -66 -1 -6 -8 -9 -10 -16 -18 -19 -20 -53 -54 -55 -61 -62 -64 0
-66 -65 -63 -56 -21 -11 -64 -62 -55 -20 -10 -61 -54 -19 -9 -53 -18 -8 -16 -6 -1 0
-1 -7 -8 -9 -10 -11 -17 -18 -19 -20 -21 -57 -58 -59 -60 -61 -62 -63 -64 -65 -66 0
-11 -10 -9 -8 -7 -1 -66 -65 -63 -60 -21 -64 -62 -59 -20 -61 -58 -19 -57 -18 -17 0
-1 -21 -20 -19 -18 -17 -11 -10 -9 -8 -7 -66 -65 -63 -60 -64 -62 -59 -61 -58 -57 0
-17 -18 -19 -20 -21 -1 -57 -58 -59 -60 -7 -61 -62 -63 -8 -64 -65 -9 -66 -10 -11 0
-17 -7 -60 -59 -58 -57 -1 -21 -20 -19 -18 -11 -10 -9 -8 -66 -65 -63 -64 -62 -61 0
-57 -58 -59 -60 -7 -17 -61 -62 -63 -8 -18 -64 -65 -9 -19 -66 -10 -20 -11 -21 -1 0
-57 -18 -8 -63 -62 -61 -17 -7 -60 -59 -58 -1 -21 -20 -19 -11 -10 -9 -66 -65 -64 0
-61 -62 -63 -8 -18 -57 -64 -65 -9 -19 -58 -66 -10 -20 -59 -11 -21 -60 -1 -7 -17 0
-61 -58 -19 -9 -65 -64 -57 -18 -8 -63 -62 -17 -7 -60 -59 -1 -21 -20 -11 -10 -66 0
-64 -65 -9 -19 -58 -61 -66 -10 -20 -59 -62 -11 -21 -60 -63 -1 -7 -8 -17 -18 -57 0
-64 -62 -59 -20 -10 -66 -61 -58 -19 -9 -65 -57 -18 -8 -63 -17 -7 -60 -1 -21 -11 0
-66 -10 -20 -59 -62 -64 -11 -21 -60 -63 -65 -1 -7 -8 -9 -17 -18 -19 -57 -58 -61 0
-11 -21 -60 -63 -65 -66 -1 -7 -8 -9 -10 -17 -18 -19 -20 -57 -58 -59 -61 -62 -64 0
-66 -65 -63 -60 -21 -11 -64 -62 -59 -20 -10 -61 -58 -19 -9 -57 -18 -8 -17 -7 -1 0
-2 -3 -4 -5 -6 -7 -22 -23 -24 -25 -26 -31 -32 -33 -34 -39 -40 -41 -46 -47 -52 0
-7 -6 -5 -4 -3 -2 -52 -47 -41 -34 -26 -46 -40 -33 -25 -39 -32 -24 -31 -23 -22 0
-2 -26 -25 -24 -23 -22 -7 -6 -5 -4 -3 -52 -47 -41 -34 -46 -40 -33 -39 -32 -31 0
-22 -23 -24 -25 -26 -2 -31 -32 -33 -34 -3 -39 -40 -41 -4 -46 -47 -5 -52 -6 -7 0
-22 -3 -34 -33 -32 -31 -2 -26 -25 -24 -23 -7 -6 -5 -4 -52 -47 -41 -46 -40 -39 0
-31 -32 -33 -34 -3 -22 -39 -40 -41 -4 -23 -46 -47 -5 -24 -52 -6 -25 -7 -26 -2 0
-31 -23 -4 -41 -40 -39 -22 -3 -34 -33 -32 -2 -26 -25 -24 -7 -6 -5 -52 -47 -46 0
-39 -40 -41 -4 -23 -31 -46 -47 -5 -24 -32 -52 -6 -25 -33 -7 -26 -34 -2 -3 -22 0
-39 -32 -24 -5 -47 -46 -31 -23 -4 -41 -40 -22 -3 -34 -33 -2 -26 -25 -7 -6 -52 0
-46 -47 -5 -24 -32 -39 -52 -6 -25 -33 -40 -7 -26 -34 -41 -2 -3 -4 -22 -23 -31 0
-46 -40 -33 -25 -6 -52 -39 -32 -24 -5 -47 -31 -23 -4 -41 -22 -3 -34 -2 -26 -7 0
-52 -6 -25 -33 -40 -46 -7 -26 -34 -41 -47 -2 -3 -4 -5 -22 -23 -24 -31 -32 -39 0
-7 -26 -34 -41 -47 -52 -2 -3 -4 -5 -6 -22 -23 -24 -25 -31 -32 -33 -39 -40 -46 0
-52 -47 -41 -34 -26 -7 -46 -40 -33 -25 -6 -39 -32 -24 -5 -31 -23 -4 -22 -3 -2 0
-2 -3 -4 -5 -6 -8 -22 -23 -24 -25 -27 -31 -32 -33 -35 -39 -40 -42 -46 -48 -53 0
-8 -6 -5 -4 -3 -2 -53 -48 -42 -35 -27 -46 -40 -33 -25 -39 -32 -24 -31 -23 -22 0
-2 -27 -25 -24 -23 -22 -8 -6 -5 -4 -3 -53 -48 -42 -35 -46 -40 -33 -39 -32 -31 0
-22 -23 -24 -25 -27 -2 -31 -32 -33 -35 -3 -39 -40 -42 -4 -46 -48 -5 -53 -6 -8 0
-22 -3 -35 -33 -32 -31 -2 -27 -25 -24 -23 -8 -6 -5 -4 -53 -48 -42 -46 -40 -39 0
-31 -32 -33 -35 -3 -22 -39 -40 -42 -4 -23 -46 -48 -5 -24 -53 -6 -25 -8 -27 -2 0
-31 -23 -4 -42 -40 -39 -22 -3 -35 -33 -32 -2 -27 -25 -24 -8 -6 -5 -53 -48 -46 0
-39 -40 -42 -4 -23 -31 -46 -48 -5 -24 -32 -53 -6 -25 -33 -8 -27 -35 -2 -3 -22 0
-39 -32 -24 -5 -48 -46 -31 -23 -4 -42 -40 -22 -3 -35 -33 -2 -27 -25 -8 -6 -53 0
-46 -48 -5 -24 -32 -39 -53 -6 -25 -33 -40 -8 -27 -35 -42 -2 -3 -4 -22 -23 -31 0
-46 -40 -33 -25 -6 -53 -39 -32 -24 -5 -48 -31 -23 -4 -42 -22 -3 -35 -2 -27 -8 0
-53 -6 -25 -33 -40 -46 -8 -27 -35 -42 -48 -2 -3 -4 -5 -22 -23 -24 -31 -32 -39 0
-8 -27 -35 -42 -48 -53 -2 -3 -4 -5 -6 -22 -23 -24 -25 -31 -32 -33 -39 -40 -46 0
-53 -48 -42 -35 -27 -8 -46 -40 -33 -25 -6 -39 -32 -24 -5 -31 -23 -4 -22 -3 -2 0
-2 -3 -4 -5 -6 -9 -22 -23 -24 -25 -28 -31 -32 -33 -36 -39 -40 -43 -46 -49 -54 0
-9 -6 -5 -4 -3 -2 -54 -49 -43 -36 -28 -46 -40 -33 -25 -39 -32 -24 -31 -23 -22 0
-2 -28 -25 -24 -23 -22 -9 -6 -5 -4 -3 -54 -49 -43 -36 -46 -40 -33 -39 -32 -31 0
-22 -23 -24 -25 -28 -2 -31 -32 -33 -36 -3 -39 -40 -43 -4 -46 -49 -5 -54 -6 -9 0
-22 -3 -36 -33 -32 -31 -2 -28 -25 -24 -23 -9 -6 -5 -4 -54 -49 -43 -46 -40 -39 0
-31 -32 -33 -36 -3 -22 -39 -40 -43 -4 -23 -46 -49 -5 -24 -54 -6 -25 -9 -28 -2 0
-31 -23 -4 -43 -40 -39 -22 -3 -36 -33 -32 -2 -28 -25 -24 -9 -6 -5 -54 -49 -46 0
-39 -40 -43 -4 -23 -31 -46 -49 -5 -24 -32 -54 -6 -25 -33 -9 -28 -36 -2 -3 -22 0
-39 -32 -24 -5 -49 -46 -31 -23 -4 -43 -40 -22 -3 -36 -33 -2 -28 -25 -9 -6 -54 0
-46 -49 -5 -24 -32 -39 -54 -6 -25 -33 -40 -9 -28 -36 -43 -2 -3 -4 -22 -23 -31 0
-46 -40 -33 -25 -6 -54 -39 -32 -24 -5 -49 -31 -23 -4 -43 -22 -3 -36 -2 -28 -9 0
-54 -6 -25 -33 -40 -46 -9 -28 -36 -43 -49 -2 -3 -4 -5 -22 -23 -24 -31 -32 -39 0
-9 -28 -36 -43 -49 -54 -2 -3 -4 -5 -6 -22 -23 -24 -25 -31 -32 -33 -39 -40 -46 0
-54 -49 -43 -36 -28 -9 -46 -40 -33 -25 -6 -39 -32 -24 -5 -31 -23 -4 -22 -3 -2 0
-2 -3 -4 -5 -6 -10 -22 -23 -24 -25 -29 -31 -32 -33 -37 -39 -40 -44 -46 -50 -55 0
-10 -6 -5 -4 -3 -2 -55 -50 -44 -37 -29 -46 -40 -33 -25 -39 -32 -24 -31 -23 -22 0
-2 -29 -25 -24 -23 -22 -10 -6 -5 -4 -3 -55 -50 -44 -37 -46 -40 -33 -39 -32 -31 0
-22 -23 -24 -25 -29 -2 -31 -32 -33 -37 -3 -39 -40 -44 -4 -46 -50 -5 -55 -6 -10 0
-22 -3 -37 -33 -32 -31 -2 -29 -25 -24 -23 -10 -6 -5 -4 -55 -50 -44 -46 -40 -39 0
-31 -32 -33 -37 -3 -22 -39 -40 -44 -4 -23 -46 -50 -5 -24 -55 -6 -25 -10 -29 -2 0
-31 -23 -4 -44 -40 -39 -22 -3 -37 -33 -32 -2 -29 -25 -24 -10 -6 -5 -55 -50 -46 0
-39 -40 -44 -4 -23 -31 -46 -50 -5 -24 -32 -55 -6 -25 -33 -10 -29 -37 -2 -3 -22 0
-39 -32 -24 -5 -50 -46 -31 -23 -4 -44 -40 -22 -3 -37 -33 -2 -29 -25 -10 -6 -55 0
-46 -50 -5 -24 -32 -39 -55 -6 -25 -33 -40 -10 -29 -37 -44 -2 -3 -4 -22 -23 -31 0
-46 -40 -33 -25 -6 -55 -39 -32 -24 -5 -50 -31 -23 -4 -44 -22 -3 -37 -2 -29 -10 0
-55 -6 -25 -33 -40 -46 -10 -29 -37 -44 -50 -2 -3 -4 -5 -22 -23 -24 -31 -32 -39 0
-10 -29 -37 -44 -50 -55 -2 -3 -4 -5 -6 -22 -23 -24 -25 -31 -32 -33 -39 -40 -46 0
-55 -50 -44 -37 -29 -10 -46 -40 -33 -25 -6 -39 -32 -24 -5 -31 -23 -4 -22 -3 -2 0
-2 -3 -4 -5 -6 -11 -22 -23 -24 -25 -30 -31 -32 -33 -38 -39 -40 -45 -46 -51 -56 0
-11 -6 -5 -4 -3 -2 -56 -51 -45 -38 -30 -46 -40 -33 -25 -39 -32 -24 -31 -23 -22 0
-2 -30 -25 -24 -23 -22 -11 -6 -5 -4 -3 -56 -51 -45 -38 -46 -40 -33 -39 -32 -31 0
-22 -23 -24 -25 -30 -2 -31 -32 -33 -38 -3 -39 -40 -45 -4 -46 -51 -5 -56 -6 -11 0
-22 -3 -38 -33 -32 -31 -2 -30 -25 -24 -23 -11 -6 -5 -4 -56 -51 -45 -46 -40 -39 0
-31 -32 -33 -38 -3 -22 -39 -40 -45 -4 -23 -46 -51 -5 -24 -56 -6 -25 -11 -30 -2 0
-31 -23 -4 -45 -40 -39 -22 -3 -38 -33 -32 -2 -30 -25 -24 -11 -6 -5 -56 -51 -46 0
-39 -40 -45 -4 -23 -31 -46 -51 -5 -24 -32 -56 -6 -25 -33 -11 -30 -38 -2 -3 -22 0
-39 -32 -24 -5 -51 -46 -31 -23 -4 -45 -40 -22 -3 -38 -33 -2 -30 -25 -11 -6 -56 0
-46 -51 -5 -24 -32 -39 -56 -6 -25 -33 -40 -11 -30 -38 -45 -2 -3 -4 -22 -23 -31 0
-46 -40 -33 -25 -6 -56 -39 -32 -24 -5 -51 -31 -23 -4 -45 -22 -3 -38 -2 -30 -11 0
-56 -6 -25 -33 -40 -46 -11 -30 -38 -45 -51 -2 -3 -4 -5 -22 -23 -24 -31 -32 -39 0
-11 -30 -38 -45 -51 -56 -2 -3 -4 -5 -6 -22 -23 -24 -25 -31 -32 -33 -39 -40 -46 0
-56 -51 -45 -38 -30 -11 -46 -40 -33 -25 -6 -39 -32 -24 -5 -31 -23 -4 -22 -3 -2 0
-2 -3 -4 -5 -7 -8 -22 -23 -24 -26 -27 -31 -32 -34 -35 -39 -41 -42 -47 -48 -57 0
-8 -7 -5 -4 -3 -2 -57 -48 -42 -35 -27 -47 -41 -34 -26 -39 -32 -24 -31 -23 -22 0
-2 -27 -26 -24 -23 -22 -8 -7 -5 -4 -3 -57 -48 -42 -35 -47 -41 -34 -39 -32 -31 0
-22 -23 -24 -26 -27 -2 -31 -32 -34 -35 -3 -39 -41 -42 -4 -47 -48 -5 -57 -7 -8 0
-22 -3 -35 -34 -32 -31 -2 -27 -26 -24 -23 -8 -7 -5 -4 -57 -48 -42 -47 -41 -39 0
-31 -32 -34 -35 -3 -22 -39 -41 -42 -4 -23 -47 -48 -5 -24 -57 -7 -26 -8 -27 -2 0
-31 -23 -4 -42 -41 -39 -22 -3 -35 -34 -32 -2 -27 -26 -24 -8 -7 -5 -57 -48 -47 0
-39 -41 -42 -4 -23 -31 -47 -48 -5 -24 -32 -57 -7 -26 -34 -8 -27 -35 -2 -3 -22 0
-39 -32 -24 -5 -48 -47 -31 -23 -4 -42 -41 -22 -3 -35 -34 -2 -27 -26 -8 -7 -57 0
-47 -48 -5 -24 -32 -39 -57 -7 -26 -34 -41 -8 -27 -35 -42 -2 -3 -4 -22 -23 -31 0
-47 -41 -34 -26 -7 -57 -39 -32 -24 -5 -48 -31 -23 -4 -42 -22 -3 -35 -2 -27 -8 0
-57 -7 -26 -34 -41 -47 -8 -27 -35 -42 -48 -2 -3 -4 -5 -22 -23 -24 -31 -32 -39 0
-8 -27 -35 -42 -48 -57 -2 -3 -4 -5 -7 -22 -23 -24 -26 -31 -32 -34 -39 -41 -47 0
-57 -48 -42 -35 -27 -8 -47 -41 -34 -26 -7 -39 -32 -24 -5 -31 -23 -4 -22 -3 -2 0
-2 -3 -4 -5 -7 -9 -22 -23 -24 -26 -28 -31 -32 -34 -36 -39 -41 -43 -47 -49 -58 0
-9 -7 -5 -4 -3 -2 -58 -49 -43 -36 -28 -47 -41 -34 -26 -39 -32 -24 -31 -23 -22 0
-2 -28 -26 -24 -23 -22 -9 -7 -5 -4 -3 -58 -49 -43 -36 -47 -41 -34 -39 -32 -31 0
-22 -23 -24 -26 -28 -2 -31 -32 -34 -36 -3 -39 -41 -43 -4 -47 -49 -5 -58 -7 -9 0
-22 -3 -36 -34 -32 -31 -2 -28 -26 -24 -23 -9 -7 -5 -4 -58 -49 -43 -47 -41 -39 0
-31 -32 -34 -36 -3 -22 -39 -41 -43 -4 -23 -47 -49 -5 -24 -58 -7 -26 -9 -28 -2 0
-31 -23 -4 -43 -41 -39 -22 -3 -36 -34 -32 -2 -28 -26 -24 -9 -7 -5 -58 -49 -47 0
-39 -41 -43 -4 -23 -31 -47 -49 -5 -24 -32 -58 -7 -26 -34 -9 -28 -36 -2 -3 -22 0
-39 -32 -24 -5 -49 -47 -31 -23 -4 -43 -41 -22 -3 -36 -34 -2 -28 -26 -9 -7 -58 0
-47 -49 -5 -24 -32 -39 -58 -7 -26 -34 -41 -9 -28 -36 -43 -2 -3 -4 -22 -23 -31 0
-47 -41 -34 -26 -7 -58 -39 -32 -24 -5 -49 -31 -23 -4 -43 -22 -3 -36 -2 -28 -9 0
-58 -7 -26 -34 -41 -47 -9 -28 -36 -43 -49 -2 -3 -4 -5 -22 -23 -24 -31 -32 -39 0
-9 -28 -36 -43 -49 -58 -2 -3 -4 -5 -7 -22 -23 -24 -26 -31 -32 -34 -39 -41 -47 0
-58 -49 -43 -36 -28 -9 -47 -41 -34 -26 -7 -39 -32 -24 -5 -31 -23 -4 -22 -3 -2 0
-2 -3 -4 -5 -7 -10 -22 -23 -24 -26 -29 -31 -32 -34 -37 -39 -41 -44 -47 -50 -59 0
-10 -7 -5 -4 -3 -2 -59 -50 -44 -37 -29 -47 -41 -34 -26 -39 -32 -24 -31 -23 -22 0
-2 -29 -26 -24 -23 -22 -10 -7 -5 -4 -3 -59 -50 -44 -37 -47 -41 -34 -39 -32 -31 0
-22 -23 -24 -26 -29 -2 -31 -32 -34 -37 -3 -39 -41 -44 -4 -47 -50 -5 -59 -7 -10 0
-22 -3 -37 -34 -32 -31 -2 -29 -26 -24 -23 -10 -7 -5 -4 -59 -50 -44 -47 -41 -39 0
-31 -32 -34 -37 -3 -22 -39 -41 -44 -4 -23 -47 -50 -5 -24 -59 -7 -26 -10 -29 -2 0
-31 -23 -4 -44 -41 -39 -22 -3 -37 -34 -32 -2 -29 -26 -24 -10 -7 -5 -59 -50 -47 0
-39 -41 -44 -4 -23 -31 -47 -50 -5 -24 -32 -59 -7 -26 -34 -10 -29 -37 -2 -3 -22 0
-39 -32 -24 -5 -50 -47 -31 -23 -4 -44 -41 -22 -3 -37 -34 -2 -29 -26 -10 -7 -59 0
-47 -50 -5 -24 -32 -39 -59 -7 -26 -34 -41 -10 -29 -37 -44 -2 -3 -4 -22 -23 -31 0
-47 -41 -34 -26 -7 -59 -39 -32 -24 -5 -50 -31 -23 -4 -44 -22 -3 -37 -2 -29 -10 0
-59 -7 -26 -34 -41 -47 -10 -29 -37 -44 -50 -2 -3 -4 -5 -22 -23 -24 -31 -32 -39 0
-10 -29 -37 -44 -50 -59 -2 -3 -4 -5 -7 -22 -23 -24 -26 -31 -32 -34 -39 -41 -47 0
-59 -50 -44 -37 -29 -10 -47 -41 -34 -26 -7 -39 -32 -24 -5 -31 -23 -4 -22 -3 -2 0
-2 -3 -4 -5 -7 -11 -22 -23 -24 -26 -30 -31 -32 -34 -38 -39 -41 -45 -47 -51 -60 0
-11 -7 -5 -4 -3 -2 -60 -51 -45 -38 -30 -47 -41 -34 -26 -39 -32 -24 -31 -23 -22 0
-2 -30 -26 -24 -23 -22 -11 -7 -5 -4 -3 -60 -51 -45 -38 -47 -41 -34 -39 -32 -31 0
-22 -23 -24 -26 -30 -2 -31 -32 -34 -38 -3 -39 -41 -45 -4 -47 -51 -5 -60 -7 -11 0
-22 -3 -38 -34 -32 -31 -2 -30 -26 -24 -23 -11 -7 -5 -4 -60 -51 -45 -47 -41 -39 0
-31 -32 -34 -38 -3 -22 -39 -41 -45 -4 -23 -47 -51 -5 -24 -60 -7 -26 -11 -30 -2 0
-31 -23 -4 -45 -41 -39 -22 -3 -38 -34 -32 -2 -30 -26 -24 -11 -7 -5 -60 -51 -47 0
-39 -41 -45 -4 -23 -31 -47 -51 -5 -24 -32 -60 -7 -26 -34 -11 -30 -38 -2 -3 -22 0
-39 -32 -24 -5 -51 -47 -31 -23 -4 -45 -41 -22 -3 -38 -34 -2 -30 -26 -11 -7 -60 0
-47 -51 -5 -24 -32 -39 -60 -7 -26 -34 -41 -11 -30 -38 -45 -2 -3 -4 -22 -23 -31 0
-47 -41 -34 -26 -7 -60 -39 -32 -24 -5 -51 -31 -23 -4 -45 -22 -3 -38 -2 -30 -11 0
-60 -7 -26 -34 -41 -47 -11 -30 -38 -45 -51 -2 -3 -4 -5 -22 -23 -24 -31 -32 -39 0
-11 -30 -38 -45 -51 -60 -2 -3 -4 -5 -7 -22 -23 -24 -26 -31 -32 -34 -39 -41 -47 0
-60 -51 -45 -38 -30 -11 -47 -41 -34 -26 -7 -39 -32 -24 -5 -31 -23 -4 -22 -3 -2 0
-2 -3 -4 -5 -8 -9 -22 -23 -24 -27 -28 -31 -32 -35 -36 -39 -42 -43 -48 -49 -61 0
-9 -8 -5 -4 -3 -2 -61 -49 -43 -36 -28 -48 -42 -35 -27 -39 -32 -24 -31 -23 -22 0
-2 -28 -27 -24 -23 -22 -9 -8 -5 -4 -3 -61 -49 -43 -36 -48 -42 -35 -39 -32 -31 0
-22 -23 -24 -27 -28 -2 -31 -32 -35 -36 -3 -39 -42 -43 -4 -48 -49 -5 -61 -8 -9 0
-22 -3 -36 -35 -32 -31 -2 -28 -27 -24 -23 -9 -8 -5 -4 -61 -49 -43 -48 -42 -39 0
-31 -32 -35 -36 -3 -22 -39 -42 -43 -4 -23 -48 -49 -5 -24 -61 -8 -27 -9 -28 -2 0
-31 -23 -4 -43 -42 -39 -22 -3 -36 -35 -32 -2 -28 -27 -24 -9 -8 -5 -61 -49 -48 0
-39 -42 -43 -4 -23 -31 -48 -49 -5 -24 -32 -61 -8 -27 -35 -9 -28 -36 -2 -3 -22 0
-39 -32 -24 -5 -49 -48 -31 -23 -4 -43 -42 -22 -3 -36 -35 -2 -28 -27 -9 -8 -61 0
-48 -49 -5 -24 -32 -39 -61 -8 -27 -35 -42 -9 -28 -36 -43 -2 -3 -4 -22 -23 -31 0
-48 -42 -35 -27 -8 -61 -39 -32 -24 -5 -49 -31 -23 -4 -43 -22 -3 -36 -2 -28 -9 0
-61 -8 -27 -35 -42 -48 -9 -28 -36 -43 -49 -2 -3 -4 -5 -22 -23 -24 -31 -32 -39 0
-9 -28 -36 -43 -49 -61 -2 -3 -4 -5 -8 -22 -23 -24 -27 -31 -32 -35 -39 -42 -48 0
-61 -49 -43 -36 -28 -9 -48 -42 -35 -27 -8 -39 -32 -24 -5 -31 -23 -4 -22 -3 -2 0
-2 -3 -4 -5 -8 -10 -22 -23 -24 -27 -29 -31 -32 -35 -37 -39 -42 -44 -48 -50 -62 0
-10 -8 -5 -4 -3 -2 -62 -50 -44 -37 -29 -48 -42 -35 -27 -39 -32 -24 -31 -23 -22 0
-2 -29 -27 -24 -23 -22 -10 -8 -5 -4 -3 -62 -50 -44 -37 -48 -42 -35 -39 -32 -31 0
-22 -23 -24 -27 -29 -2 -31 -32 -35 -37 -3 -39 -42 -44 -4 -48 -50 -5 -62 -8 -10 0
-22 -3 -37 -35 -32 -31 -2 -29 -27 -24 -23 -10 -8 -5 -4 -62 -50 -44 -48 -42 -39 0
-31 -32 -35 -37 -3 -22 -39 -42 -44 -4 -23 -48 -50 -5 -24 -62 -8 -27 -10 -29 -2 0
-31 -23 -4 -44 -42 -39 -22 -3 -37 -35 -32 -2 -29 -27 -24 -10 -8 -5 -62 -50 -48 0
-39 -42 -44 -4 -23 -31 -48 -50 -5 -24 -32 -62 -8 -27 -35 -10 -29 -37 -2 -3 -22 0
-39 -32 -24 -5 -50 -48 -31 -23 -4 -44 -42 -22 -3 -37 -35 -2 -29 -27 -10 -8 -62 0
-48 -50 -5 -24 -32 -39 -62 -8 -27 -35 -42 -10 -29 -37 -44 -2 -3 -4 -22 -23 -31 0
-48 -42 -35 -27 -8 -62 -39 -32 -24 -5 -50 -31 -23 -4 -44 -22 -3 -37 -2 -29 -10 0
-62 -8 -27 -35 -42 -48 -10 -29 -37 -44 -50 -2 -3 -4 -5 -22 -23 -24 -31 -32 -39 0
-10 -29 -37 -44 -50 -62 -2 -3 -4 -5 -8 -22 -23 -24 -27 -31 -32 -35 -39 -42 -48 0
-62 -50 -44 -37 -29 -10 -48 -42 -35 -27 -8 -39 -32 -24 -5 -31 -23 -4 -22 -3 -2 0
-2 -3 -4 -5 -8 -11 -22 -23 -24 -27 -30 -31 -32 -35 -38 -39 -42 -45 -48 -51 -63 0
-11 -8 -5 -4 -3 -2 -63 -51 -45 -38 -30 -48 -42 -35 -27 -39 -32 -24 -31 -23 -22 0
-2 -30 -27 -24 -23 -22 -11 -8 -5 -4 -3 -63 -51 -45 -38 -48 -42 -35 -39 -32 -31 0
-22 -23 -24 -27 -30 -2 -31 -32 -35 -38 -3 -39 -42 -45 -4 -48 -51 -5 -63 -8 -11 0
-22 -3 -38 -35 -32 -31 -2 -30 -27 -24 -23 -11 -8 -5 -4 -63 -51 -45 -48 -42 -39 0
-31 -32 -35 -38 -3 -22 -39 -42 -45 -4 -23 -48 -51 -5 -24 -63 -8 -27 -11 -30 -2 0
-31 -23 -4 -45 -42 -39 -22 -3 -38 -35 -32 -2 -30 -27 -24 -11 -8 -5 -63 -51 -48 0
-39 -42 -45 -4 -23 -31 -48 -51 -5 -24 -32 -63 -8 -27 -35 -11 -30 -38 -2 -3 -22 0
-39 -32 -24 -5 -51 -48 -31 -23 -4 -45 -42 -22 -3 -38 -35 -2 -30 -27 -11 -8 -63 0
-48 -51 -5 -24 -32 -39 -63 -8 -27 -35 -42 -11 -30 -38 -45 -2 -3 -4 -22 -23 -31 0
-48 -42 -35 -27 -8 -63 -39 -32 -24 -5 -51 -31 -23 -4 -45 -22 -3 -38 -2 -30 -11 0
-63 -8 -27 -35 -42 -48 -11 -30 -38 -45 -51 -2 -3 -4 -5 -22 -23 -24 -31 -32 -39 0
-11 -30 -38 -45 -51 -63 -2 -3 -4 -5 -8 -22 -23 -24 -27 -31 -32 -35 -39 -42 -48 0
-63 -51 -45 -38 -30 -11 -48 -42 -35 -27 -8 -39 -32 -24 -5 -31 -23 -4 -22 -3 -2 0
-2 -3 -4 -5 -9 -10 -22 -23 -24 -28 -29 -31 -32 -36 -37 -39 -43 -44 -49 -50 -64 0
-10 -9 -5 -4 -3 -2 -64 -50 -44 -37 -29 -49 -43 -36 -28 -39 -32 -24 -31 -23 -22 0
-2 -29 -28 -24 -23 -22 -10 -9 -5 -4 -3 -64 -50 -44 -37 -49 -43 -36 -39 -32 -31 0
-22 -23 -24 -28 -29 -2 -31 -32 -36 -37 -3 -39 -43 -44 -4 -49 -50 -5 -64 -9 -10 0
-22 -3 -37 -36 -32 -31 -2 -29 -28 -24 -23 -10 -9 -5 -4 -64 -50 -44 -49 -43 -39 0
-31 -32 -36 -37 -3 -22 -39 -43 -44 -4 -23 -49 -50 -5 -24 -64 -9 -28 -10 -29 -2 0
-31 -23 -4 -44 -43 -39 -22 -3 -37 -36 -32 -2 -29 -28 -24 -10 -9 -5 -64 -50 -49 0
-39 -43 -44 -4 -23 -31 -49 -50 -5 -24 -32 -64 -9 -28 -36 -10 -29 -37 -2 -3 -22 0
-39 -32 -24 -5 -50 -49 -31 -23 -4 -44 -43 -22 -3 -37 -36 -2 -29 -28 -10 -9 -64 0
-49 -50 -5 -24 -32 -39 -64 -9 -28 -36 -43 -10 -29 -37 -44 -2 -3 -4 -22 -23 -31 0
-49 -43 -36 -28 -9 -64 -39 -32 -24 -5 -50 -31 -23 -4 -44 -22 -3 -37 -2 -29 -10 0
-64 -9 -28 -36 -43 -49 -10 -29 -37 -44 -50 -2 -3 -4 -5 -22 -23 -24 -31 -32 -39 0
-10 -29 -37 -44 -50 -64 -2 -3 -4 -5 -9 -22 -23 -24 -28 -31 -32 -36 -39 -43 -49 0
-64 -50 -44 -37 -29 -10 -49 -43 -36 -28 -9 -39 -32 -24 -5 -31 -23 -4 -22 -3 -2 0
-2 -3 -4 -5 -9 -11 -22 -23 -24 -28 -30 -31 -32 -36 -38 -39 -43 -45 -49 -51 -65 0
-11 -9 -5 -4 -3 -2 -65 -51 -45 -38 -30 -49 -43 -36 -28 -39 -32 -24 -31 -23 -22 0
-2 -30 -28 -24 -23 -22 -11 -9 -5 -4 -3 -65 -51 -45 -38 -49 -43 -36 -39 -32 -31 0
-22 -23 -24 -28 -30 -2 -31 -32 -36 -38 -3 -39 -43 -45 -4 -49 -51 -5 -65 -9 -11 0
-22 -3 -38 -36 -32 -31 -2 -30 -28 -24 -23 -11 -9 -5 -4 -65 -51 -45 -49 -43 -39 0
-31 -32 -36 -38 -3 -22 -39 -43 -45 -4 -23 -49 -51 -5 -24 -65 -9 -28 -11 -30 -2 0
-31 -23 -4 -45 -43 -39 -22 -3 -38 -36 -32 -2 -30 -28 -24 -11 -9 -5 -65 -51 -49 0
-39 -43 -45 -4 -23 -31 -49 -51 -5 -24 -32 -65 -9 -28 -36 -11 -30 -38 -2 -3 -22 0
-39 -32 -24 -5 -51 -49 -31 -23 -4 -45 -43 -22 -3 -38 -36 -2 -30 -28 -11 -9 -65 0
-49 -51 -5 -24 -32 -39 -65 -9 -28 -36 -43 -11 -30 -38 -45 -2 -3 -4 -22 -23 -31 0
-49 -43 -36 -28 -9 -65 -39 -32 -24 -5 -51 -31 -23 -4 -45 -22 -3 -38 -2 -30 -11 0
-65 -9 -28 -36 -43 -49 -11 -30 -38 -45 -51 -2 -3 -4 -5 -22 -23 -24 -31 -32 -39 0
-11 -30 -38 -45 -51 -65 -2 -3 -4 -5 -9 -22 -23 -24 -28 -31 -32 -36 -39 -43 -49 0
-65 -51 -45 -38 -30 -11 -49 -43 -36 -28 -9 -39 -32 -24 -5 -31 -23 -4 -22 -3 -2 0
-2 -3 -4 -5 -10 -11 -22 -23 -24 -29 -30 -31 -32 -37 -38 -39 -44 -45 -50 -51 -66 0
-11 -10 -5 -4 -3 -2 -66 -51 -45 -38 -30 -50 -44 -37 -29 -39 -32 -24 -31 -23 -22 0
-2 -30 -29 -24 -23 -22 -11 -10 -5 -4 -3 -66 -51 -45 -38 -50 -44 -37 -39 -32 -31 0
-22 -23 -24 -29 -30 -2 -31 -32 -37 -38 -3 -39 -44 -45 -4 -50 -51 -5 -66 -10 -11 0
-22 -3 -38 -37 -32 -31 -2 -30 -29 -24 -23 -11 -10 -5 -4 -66 -51 -45 -50 -44 -39 0
-31 -32 -37 -38 -3 -22 -39 -44 -45 -4 -23 -50 -51 -5 -24 -66 -10 -29 -11 -30 -2 0
-31 -23 -4 -45 -44 -39 -22 -3 -38 -37 -32 -2 -30 -29 -24 -11 -10 -5 -66 -51 -50 0
-39 -44 -45 -4 -23 -31 -50 -51 -5 -24 -32 -66 -10 -29 -37 -11 -30 -38 -2 -3 -22 0
-39 -32 -24 -5 -51 -50 -31 -23 -4 -45 -44 -22 -3 -38 -37 -2 -30 -29 -11 -10 -66 0
-50 -51 -5 -24 -32 -39 -66 -10 -29 -37 -44 -11 -30 -38 -45 -2 -3 -4 -22 -23 -31 0
-50 -44 -37 -29 -10 -66 -39 -32 -24 -5 -51 -31 -23 -4 -45 -22 -3 -38 -2 -30 -11 0
-66 -10 -29 -37 -44 -50 -11 -30 -38 -45 -51 -2 -3 -4 -5 -22 -23 -24 -31 -32 -39 0
-11 -30 -38 -45 -51 -66 -2 -3 -4 -5 -10 -22 -23 -24 -29 -31 -32 -37 -39 -44 -50 0
-66 -51 -45 -38 -30 -11 -50 -44 -37 -29 -10 -39 -32 -24 -5 -31 -23 -4 -22 -3 -2 0
-2 -3 -4 -6 -7 -8 -22 -23 -25 -26 -27 -31 -33 -34 -35 -40 -41 -42 -52 -53 -57 0
-8 -7 -6 -4 -3 -2 -57 -53 -42 -35 -27 -52 -41 -34 -26 -40 -33 -25 -31 -23 -22 0
-2 -27 -26 -25 -23 -22 -8 -7 -6 -4 -3 -57 -53 -42 -35 -52 -41 -34 -40 -33 -31 0
-22 -23 -25 -26 -27 -2 -31 -33 -34 -35 -3 -40 -41 -42 -4 -52 -53 -6 -57 -7 -8 0
-22 -3 -35 -34 -33 -31 -2 -27 -26 -25 -23 -8 -7 -6 -4 -57 -53 -42 -52 -41 -40 0
-31 -33 -34 -35 -3 -22 -40 -41 -42 -4 -23 -52 -53 -6 -25 -57 -7 -26 -8 -27 -2 0
-31 -23 -4 -42 -41 -40 -22 -3 -35 -34 -33 -2 -27 -26 -25 -8 -7 -6 -57 -53 -52 0
-40 -41 -42 -4 -23 -31 -52 -53 -6 -25 -33 -57 -7 -26 -34 -8 -27 -35 -2 -3 -22 0
-40 -33 -25 -6 -53 -52 -31 -23 -4 -42 -41 -22 -3 -35 -34 -2 -27 -26 -8 -7 -57 0
-52 -53 -6 -25 -33 -40 -57 -7 -26 -34 -41 -8 -27 -35 -42 -2 -3 -4 -22 -23 -31 0
-52 -41 -34 -26 -7 -57 -40 -33 -25 -6 -53 -31 -23 -4 -42 -22 -3 -35 -2 -27 -8 0
-57 -7 -26 -34 -41 -52 -8 -27 -35 -42 -53 -2 -3 -4 -6 -22 -23 -25 -31 -33 -40 0
-8 -27 -35 -42 -53 -57 -2 -3 -4 -6 -7 -22 -23 -25 -26 -31 -33 -34 -40 -41 -52 0
-57 -53 -42 -35 -27 -8 -52 -41 -34 -26 -7 -40 -33 -25 -6 -31 -23 -4 -22 -3 -2 0
-2 -3 -4 -6 -7 -9 -22 -23 -25 -26 -28 -31 -33 -34 -36 -40 -41 -43 -52 -54 -58 0
-9 -7 -6 -4 -3 -2 -58 -54 -43 -36 -28 -52 -41 -34 -26 -40 -33 -25 -31 -23 -22 0
-2 -28 -26 -25 -23 -22 -9 -7 -6 -4 -3 -58 -54 -43 -36 -52 -41 -34 -40 -33 -31 0
-22 -23 -25 -26 -28 -2 -31 -33 -34 -36 -3 -40 -41 -43 -4 -52 -54 -6 -58 -7 -9 0
-22 -3 -36 -34 -33 -31 -2 -28 -26 -25 -23 -9 -7 -6 -4 -58 -54 -43 -52 -41 -40 0
-31 -33 -34 -36 -3 -22 -40 -41 -43 -4 -23 -52 -54 -6 -25 -58 -7 -26 -9 -28 -2 0
-31 -23 -4 -43 -41 -40 -22 -3 -36 -34 -33 -2 -28 -26 -25 -9 -7 -6 -58 -54 -52 0
-40 -41 -43 -4 -23 -31 -52 -54 -6 -25 -33 -58 -7 -26 -34 -9 -28 -36 -2 -3 -22 0
-40 -33 -25 -6 -54 -52 -31 -23 -4 -43 -41 -22 -3 -36 -34 -2 -28 -26 -9 -7 -58 0
-52 -54 -6 -25 -33 -40 -58 -7 -26 -34 -41 -9 -28 -36 -43 -2 -3 -4 -22 -23 -31 0
-52 -41 -34 -26 -7 -58 -40 -33 -25 -6 -54 -31 -23 -4 -43 -22 -3 -36 -2 -28 -9 0
-58 -7 -26 -34 -41 -52 -9 -28 -36 -43 -54 -2 -3 -4 -6 -22 -23 -25 -31 -33 -40 0
-9 -28 -36 -43 -54 -58 -2 -3 -4 -6 -7 -22 -23 -25 -26 -31 -33 -34 -40 -41 -52 0
-58 -54 -43 -36 -28 -9 -52 -41 -34 -26 -7 -40 -33 -25 -6 -31 -23 -4 -22 -3 -2 0
-2 -3 -4 -6 -7 -10 -22 -23 -25 -26 -29 -31 -33 -34 -37 -40 -41 -44 -52 -55 -59 0
-10 -7 -6 -4 -3 -2 -59 -55 -44 -37 -29 -52 -41 -34 -26 -40 -33 -25 -31 -23 -22 0
-2 -29 -26 -25 -23 -22 -10 -7 -6 -4 -3 -59 -55 -44 -37 -52 -41 -34 -40 -33 -31 0
-22 -23 -25 -26 -29 -2 -31 -33 -34 -37 -3 -40 -41 -44 -4 -52 -55 -6 -59 -7 -10 0
-22 -3 -37 -34 -33 -31 -2 -29 -26 -25 -23 -10 -7 -6 -4 -59 -55 -44 -52 -41 -40 0
-31 -33 -34 -37 -3 -22 -40 -41 -44 -4 -23 -52 -55 -6 -25 -59 -7 -26 -10 -29 -2 0
-31 -23 -4 -44 -41 -40 -22 -3 -37 -34 -33 -2 -29 -26 -25 -10 -7 -6 -59 -55 -52 0
-40 -41 -44 -4 -23 -31 -52 -55 -6 -25 -33 -59 -7 -26 -34 -10 -29 -37 -2 -3 -22 0
-40 -33 -25 -6 -55 -52 -31 -23 -4 -44 -41 -22 -3 -37 -34 -2 -29 -26 -10 -7 -59 0
-52 -55 -6 -25 -33 -40 -59 -7 -26 -34 -41 -10 -29 -37 -44 -2 -3 -4 -22 -23 -31 0
-52 -41 -34 -26 -7 -59 -40 -33 -25 -6 -55 -31 -23 -4 -44 -22 -3 -37 -2 -29 -10 0
-59 -7 -26 -34 -41 -52 -10 -29 -37 -44 -55 -2 -3 -4 -6 -22 -23 -25 -31 -33 -40 0
-10 -29 -37 -44 -55 -59 -2 -3 -4 -6 -7 -22 -23 -25 -26 -31 -33 -34 -40 -41 -52 0
-59 -55 -44 -37 -29 -10 -52 -41 -34 -26 -7 -40 -33 -25 -6 -31 -23 -4 -22 -3 -2 0
-2 -3 -4 -6 -7 -11 -22 -23 -25 -26 -30 -31 -33 -34 -38 -40 -41 -45 -52 -56 -60 0
-11 -7 -6 -4 -3 -2 -60 -56 -45 -38 -30 -52 -41 -34 -26 -40 -33 -25 -31 -23 -22 0
-2 -30 -26 -25 -23 -22 -11 -7 -6 -4 -3 -60 -56 -45 -38 -52 -41 -34 -40 -33 -31 0
-22 -23 -25 -26 -30 -2 -31 -33 -34 -38 -3 -40 -41 -45 -4 -52 -56 -6 -60 -7 -11 0
-22 -3 -38 -34 -33 -31 -2 -30 -26 -25 -23 -11 -7 -6 -4 -60 -56 -45 -52 -41 -40 0
-31 -33 -34 -38 -3 -22 -40 -41 -45 -4 -23 -52 -56 -6 -25 -60 -7 -26 -11 -30 -2 0
-31 -23 -4 -45 -41 -40 -22 -3 -38 -34 -33 -2 -30 -26 -25 -11 -7 -6 -60 -56 -52 0
-40 -41 -45 -4 -23 -31 -52 -56 -6 -25 -33 -60 -7 -26 -34 -11 -30 -38 -2 -3 -22 0
-40 -33 -25 -6 -56 -52 -31 -23 -4 -45 -41 -22 -3 -38 -34 -2 -30 -26 -11 -7 -60 0
-52 -56 -6 -25 -33 -40 -60 -7 -26 -34 -41 -11 -30 -38 -45 -2 -3 -4 -22 -23 -31 0
-52 -41 -34 -26 -7 -60 -40 -33 -25 -6 -56 -31 -23 -4 -45 -22 -3 -38 -2 -30 -11 0
-60 -7 -26 -34 -41 -52 -11 -30 -38 -45 -56 -2 -3 -4 -6 -22 -23 -25 -31 -33 -40 0
-11 -30 -38 -45 -56 -60 -2 -3 -4 -6 -7 -22 -23 -25 -26 -31 -33 -34 -40 -41 -52 0
-60 -56 -45 -38 -30 -11 -52 -41 -34 -26 -7 -40 -33 -25 -6 -31 -23 -4 -22 -3 -2 0
-2 -3 -4 -6 -8 -9 -22 -23 -25 -27 -28 -31 -33 -35 -36 -40 -42 -43 -53 -54 -61 0
-9 -8 -6 -4 -3 -2 -61 -54 -43 -36 -28 -53 -42 -35 -27 -40 -33 -25 -31 -23 -22 0
-2 -28 -27 -25 -23 -22 -9 -8 -6 -4 -3 -61 -54 -43 -36 -53 -42 -35 -40 -33 -31 0
-22 -23 -25 -27 -28 -2 -31 -33 -35 -36 -3 -40 -42 -43 -4 -53 -54 -6 -61 -8 -9 0
-22 -3 -36 -35 -33 -31 -2 -28 -27 -25 -23 -9 -8 -6 -4 -61 -54 -43 -53 -42 -40 0
-31 -33 -35 -36 -3 -22 -40 -42 -43 -4 -23 -53 -54 -6 -25 -61 -8 -27 -9 -28 -2 0
-31 -23 -4 -43 -42 -40 -22 -3 -36 -35 -33 -2 -28 -27 -25 -9 -8 -6 -61 -54 -53 0
-40 -42 -43 -4 -23 -31 -53 -54 -6 -25 -33 -61 -8 -27 -35 -9 -28 -36 -2 -3 -22 0
-40 -33 -25 -6 -54 -53 -31 -23 -4 -43 -42 -22 -3 -36 -35 -2 -28 -27 -9 -8 -61 0
-53 -54 -6 -25 -33 -40 -61 -8 -27 -35 -42 -9 -28 -36 -43 -2 -3 -4 -22 -23 -31 0
-53 -42 -35 -27 -8 -61 -40 -33 -25 -6 -54 -31 -23 -4 -43 -22 -3 -36 -2 -28 -9 0
-61 -8 -27 -35 -42 -53 -9 -28 -36 -43 -54 -2 -3 -4 -6 -22 -23 -25 -31 -33 -40 0
-9 -28 -36 -43 -54 -61 -2 -3 -4 -6 -8 -22 -23 -25 -27 -31 -33 -35 -40 -42 -53 0
-61 -54 -43 -36 -28 -9 -53 -42 -35 -27 -8 -40 -33 -25 -6 -31 -23 -4 -22 -3 -2 0
-2 -3 -4 -6 -8 -10 -22 -23 -25 -27 -29 -31 -33 -35 -37 -40 -42 -44 -53 -55 -62 0
-10 -8 -6 -4 -3 -2 -62 -55 -44 -37 -29 -53 -42 -35 -27 -40 -33 -25 -31 -23 -22 0
-2 -29 -27 -25 -23 -22 -10 -8 -6 -4 -3 -62 -55 -44 -37 -53 -42 -35 -40 -33 -31 0
-22 -23 -25 -27 -29 -2 -31 -33 -35 -37 -3 -40 -42 -44 -4 -53 -55 -6 -62 -8 -10 0
-22 -3 -37 -35 -33 -31 -2 -29 -27 -25 -23 -10 -8 -6 -4 -62 -55 -44 -53 -42 -40 0
-31 -33 -35 -37 -3 -22 -40 -42 -44 -4 -23 -53 -55 -6 -25 -62 -8 -27 -10 -29 -2 0
-31 -23 -4 -44 -42 -40 -22 -3 -37 -35 -33 -2 -29 -27 -25 -10 -8 -6 -62 -55 -53 0
-40 -42 -44 -4 -23 -31 -53 -55 -6 -25 -33 -62 -8 -27 -35 -10 -29 -37 -2 -3 -22 0
-40 -33 -25 -6 -55 -53 -31 -23 -4 -44 -42 -22 -3 -37 -35 -2 -29 -27 -10 -8 -62 0
-53 -55 -6 -25 -33 -40 -62 -8 -27 -35 -42 -10 -29 -37 -44 -2 -3 -4 -22 -23 -31 0
-53 -42 -35 -27 -8 -62 -40 -33 -25 -6 -55 -31 -23 -4 -44 -22 -3 -37 -2 -29 -10 0
-62 -8 -27 -35 -42 -53 -10 -29 -37 -44 -55 -2 -3 -4 -6 -22 -23 -25 -31 -33 -40 0
-10 -29 -37 -44 -55 -62 -2 -3 -4 -6 -8 -22 -23 -25 -27 -31 -33 -35 -40 -42 -53 0
-62 -55 -44 -37 -29 -10 -53 -42 -35 -27 -8 -40 -33 -25 -6 -31 -23 -4 -22 -3 -2 0
-2 -3 -4 -6 -8 -11 -22 -23 -25 -27 -30 -31 -33 -35 -38 -40 -42 -45 -53 -56 -63 0
-11 -8 -6 -4 -3 -2 -63 -56 -45 -38 -30 -53 -42 -35 -27 -40 -33 -25 -31 -23 -22 0
-2 -30 -27 -25 -23 -22 -11 -8 -6 -4 -3 -63 -56 -45 -38 -53 -42 -35 -40 -33 -31 0
-22 -23 -25 -27 -30 -2 -31 -33 -35 -38 -3 -40 -42 -45 -4 -53 -56 -6 -63 -8 -11 0
-22 -3 -38 -35 -33 -31 -2 -30 -27 -25 -23 -11 -8 -6 -4 -63 -56 -45 -53 -42 -40 0
-31 -33 -35 -38 -3 -22 -40 -42 -45 -4 -23 -53 -56 -6 -25 -63 -8 -27 -11 -30 -2 0
-31 -23 -4 -45 -42 -40 -22 -3 -38 -35 -33 -2 -30 -27 -25 -11 -8 -6 -63 -56 -53 0
-40 -42 -45 -4 -23 -31 -53 -56 -6 -25 -33 -63 -8 -27 -35 -11 -30 -38 -2 -3 -22 0
-40 -33 -25 -6 -56 -53 -31 -23 -4 -45 -42 -22 -3 -38 -35 -2 -30 -27 -11 -8 -63 0
-53 -56 -6 -25 -33 -40 -63 -8 -27 -35 -42 -11 -30 -38 -45 -2 -3 -4 -22 -23 -31 0
-53 -42 -35 -27 -8 -63 -40 -33 -25 -6 -56 -31 -23 -4 -45 -22 -3 -38 -2 -30 -11 0
-63 -8 -27 -35 -42 -53 -11 -30 -38 -45 -56 -2 -3 -4 -6 -22 -23 -25 -31 -33 -40 0
-11 -30 -38 -45 -56 -63 -2 -3 -4 -6 -8 -22 -23 -25 -27 -31 -33 -35 -40 -42 -53 0
-63 -56 -45 -38 -30 -11 -53 -42 -35 -27 -8 -40 -33 -25 -6 -31 -23 -4 -22 -3 -2 0
-2 -3 -4 -6 -9 -10 -22 -23 -25 -28 -29 -31 -33 -36 -37 -40 -43 -44 -54 -55 -64 0
-10 -9 -6 -4 -3 -2 -64 -55 -44 -37 -29 -54 -43 -36 -28 -40 -33 -25 -31 -23 -22 0
-2 -29 -28 -25 -23 -22 -10 -9 -6 -4 -3 -64 -55 -44 -37 -54 -43 -36 -40 -33 -31 0
-22 -23 -25 -28 -29 -2 -31 -33 -36 -37 -3 -40 -43 -44 -4 -54 -55 -6 -64 -9 -10 0
-22 -3 -37 -36 -33 -31 -2 -29 -28 -25 -23 -10 -9 -6 -4 -64 -55 -44 -54 -43 -40 0
-31 -33 -36 -37 -3 -22 -40 -43 -44 -4 -23 -54 -55 -6 -25 -64 -9 -28 -10 -29 -2 0
-31 -23 -4 -44 -43 -40 -22 -3 -37 -36 -33 -2 -29 -28 -25 -10 -9 -6 -64 -55 -54 0
-40 -43 -44 -4 -23 -31 -54 -55 -6 -25 -33 -64 -9 -28 -36 -10 -29 -37 -2 -3 -22 0
-40 -33 -25 -6 -55 -54 -31 -23 -4 -44 -43 -22 -3 -37 -36 -2 -29 -28 -10 -9 -64 0
-54 -55 -6 -25 -33 -40 -64 -9 -28 -36 -43 -10 -29 -37 -44 -2 -3 -4 -22 -23 -31 0
-54 -43 -36 -28 -9 -64 -40 -33 -25 -6 -55 -31 -23 -4 -44 -22 -3 -37 -2 -29 -10 0
-64 -9 -28 -36 -43 -54 -10 -29 -37 -44 -55 -2 -3 -4 -6 -22 -23 -25 -31 -33 -40 0
-10 -29 -37 -44 -55 -64 -2 -3 -4 -6 -9 -22 -23 -25 -28 -31 -33 -36 -40 -43 -54 0
-64 -55 -44 -37 -29 -10 -54 -43 -36 -28 -9 -40 -33 -25 -6 -31 -23 -4 -22 -3 -2 0
-2 -3 -4 -6 -9 -11 -22 -23 -25 -28 -30 -31 -33 -36 -38 -40 -43 -45 -54 -56 -65 0
-11 -9 -6 -4 -3 -2 -65 -56 -45 -38 -30 -54 -43 -36 -28 -40 -33 -25 -31 -23 -22 0
-2 -30 -28 -25 -23 -22 -11 -9 -6 -4 -3 -65 -56 -45 -38 -54 -43 -36 -40 -33 -31 0
-22 -23 -25 -28 -30 -2 -31 -33 -36 -38 -3 -40 -43 -45 -4 -54 -56 -6 -65 -9 -11 0
-22 -3 -38 -36 -33 -31 -2 -30 -28 -25 -23 -11 -9 -6 -4 -65 -56 -45 -54 -43 -40 0
-31 -33 -36 -38 -3 -22 -40 -43 -45 -4 -23 -54 -56 -6 -25 -65 -9 -28 -11 -30 -2 0
-31 -23 -4 -45 -43 -40 -22 -3 -38 -36 -33 -2 -30 -28 -25 -11 -9 -6 -65 -56 -54 0
-40 -43 -45 -4 -23 -31 -54 -56 -6 -25 -33 -65 -9 -28 -36 -11 -30 -38 -2 -3 -22 0
-40 -33 -25 -6 -56 -54 -31 -23 -4 -45 -43 -22 -3 -38 -36 -2 -30 -28 -11 -9 -65 0
-54 -56 -6 -25 -33 -40 -65 -9 -28 -36 -43 -11 -30 -38 -45 -2 -3 -4 -22 -23 -31 0
-54 -43 -36 -28 -9 -65 -40 -33 -25 -6 -56 -31 -23 -4 -45 -22 -3 -38 -2 -30 -11 0
-65 -9 -28 -36 -43 -54 -11 -30 -38 -45 -56 -2 -3 -4 -6 -22 -23 -25 -31 -33 -40 0
-11 -30 -38 -45 -56 -65 -2 -3 -4 -6 -9 -22 -23 -25 -28 -31 -33 -36 -40 -43 -54 0
-65 -56 -45 -38 -30 -11 -54 -43 -36 -28 -9 -40 -33 -25 -6 -31 -23 -4 -22 -3 -2 0
-2 -3 -4 -6 -10 -11 -22 -23 -25 -29 -30 -31 -33 -37 -38 -40 -44 -45 -55 -56 -66 0
-11 -10 -6 -4 -3 -2 -66 -56 -45 -38 -30 -55 -44 -37 -29 -40 -33 -25 -31 -23 -22 0
-2 -30 -29 -25 -23 -22 -11 -10 -6 -4 -3 -66 -56 -45 -38 -55 -44 -37 -40 -33 -31 0
-22 -23 -25 -29 -30 -2 -31 -33 -37 -38 -3 -40 -44 -45 -4 -55 -56 -6 -66 -10 -11 0
-22 -3 -38 -37 -33 -31 -2 -30 -29 -25 -23 -11 -10 -6 -4 -66 -56 -45 -55 -44 -40 0
-31 -33 -37 -38 -3 -22 -40 -44 -45 -4 -23 -55 -56 -6 -25 -66 -10 -29 -11 -30 -2 0
-31 -23 -4 -45 -44 -40 -22 -3 -38 -37 -33 -2 -30 -29 -25 -11 -10 -6 -66 -56 -55 0
-40 -44 -45 -4 -23 -31 -55 -56 -6 -25 -33 -66 -10 -29 -37 -11 -30 -38 -2 -3 -22 0
-40 -33 -25 -6 -56 -55 -31 -23 -4 -45 -44 -22 -3 -38 -37 -2 -30 -29 -11 -10 -66 0
-55 -56 -6 -25 -33 -40 -66 -10 -29 -37 -44 -11 -30 -38 -45 -2 -3 -4 -22 -23 -31 0
-55 -44 -37 -29 -10 -66 -40 -33 -25 -6 -56 -31 -23 -4 -45 -22 -3 -38 -2 -30 -11 0
-66 -10 -29 -37 -44 -55 -11 -30 -38 -45 -56 -2 -3 -4 -6 -22 -23 -25 -31 -33 -40 0
-11 -30 -38 -45 -56 -66 -2 -3 -4 -6 -10 -22 -23 -25 -29 -31 -33 -37 -40 -44 -55 0
-66 -56 -45 -38 -30 -11 -55 -44 -37 -29 -10 -40 -33 -25 -6 -31 -23 -4 -22 -3 -2 0
-2 -3 -4 -7 -8 -9 -22 -23 -26 -27 -28 -31 -34 -35 -36 -41 -42 -43 -57 -58 -61 0
-9 -8 -7 -4 -3 -2 -61 -58 -43 -36 -28 -57 -42 -35 -27 -41 -34 -26 -31 -23 -22 0
-2 -28 -27 -26 -23 -22 -9 -8 -7 -4 -3 -61 -58 -43 -36 -57 -42 -35 -41 -34 -31 0
-22 -23 -26 -27 -28 -2 -31 -34 -35 -36 -3 -41 -42 -43 -4 -57 -58 -7 -61 -8 -9 0
-22 -3 -36 -35 -34 -31 -2 -28 -27 -26 -23 -9 -8 -7 -4 -61 -58 -43 -57 -42 -41 0
-31 -34 -35 -36 -3 -22 -41 -42 -43 -4 -23 -57 -58 -7 -26 -61 -8 -27 -9 -28 -2 0
-31 -23 -4 -43 -42 -41 -22 -3 -36 -35 -34 -2 -28 -27 -26 -9 -8 -7 -61 -58 -57 0
-41 -42 -43 -4 -23 -31 -57 -58 -7 -26 -34 -61 -8 -27 -35 -9 -28 -36 -2 -3 -22 0
-41 -34 -26 -7 -58 -57 -31 -23 -4 -43 -42 -22 -3 -36 -35 -2 -28 -27 -9 -8 -61 0
-57 -58 -7 -26 -34 -41 -61 -8 -27 -35 -42 -9 -28 -36 -43 -2 -3 -4 -22 -23 -31 0
-57 -42 -35 -27 -8 -61 -41 -34 -26 -7 -58 -31 -23 -4 -43 -22 -3 -36 -2 -28 -9 0
-61 -8 -27 -35 -42 -57 -9 -28 -36 -43 -58 -2 -3 -4 -7 -22 -23 -26 -31 -34 -41 0
-9 -28 -36 -43 -58 -61 -2 -3 -4 -7 -8 -22 -23 -26 -27 -31 -34 -35 -41 -42 -57 0
-61 -58 -43 -36 -28 -9 -57 -42 -35 -27 -8 -41 -34 -26 -7 -31 -23 -4 -22 -3 -2 0
-2 -3 -4 -7 -8 -10 -22 -23 -26 -27 -29 -31 -34 -35 -37 -41 -42 -44 -57 -59 -62 0
-10 -8 -7 -4 -3 -2 -62 -59 -44 -37 -29 -57 -42 -35 -27 -41 -34 -26 -31 -23 -22 0
-2 -29 -27 -26 -23 -22 -10 -8 -7 -4 -3 -62 -59 -44 -37 -57 -42 -35 -41 -34 -31 0
-22 -23 -26 -27 -29 -2 -31 -34 -35 -37 -3 -41 -42 -44 -4 -57 -59 -7 -62 -8 -10 0
-22 -3 -37 -35 -34 -31 -2 -29 -27 -26 -23 -10 -8 -7 -4 -62 -59 -44 -57 -42 -41 0
-31 -34 -35 -37 -3 -22 -41 -42 -44 -4 -23 -57 -59 -7 -26 -62 -8 -27 -10 -29 -2 0
-31 -23 -4 -44 -42 -41 -22 -3 -37 -35 -34 -2 -29 -27 -26 -10 -8 -7 -62 -59 -57 0
-41 -42 -44 -4 -23 -31 -57 -59 -7 -26 -34 -62 -8 -27 -35 -10 -29 -37 -2 -3 -22 0
-41 -34 -26 -7 -59 -57 -31 -23 -4 -44 -42 -22 -3 -37 -35 -2 -29 -27 -10 -8 -62 0
-57 -59 -7 -26 -34 -41 -62 -8 -27 -35 -42 -10 -29 -37 -44 -2 -3 -4 -22 -23 -31 0
-57 -42 -35 -27 -8 -62 -41 -34 -26 -7 -59 -31 -23 -4 -44 -22 -3 -37 -2 -29 -10 0
-62 -8 -27 -35 -42 -57 -10 -29 -37 -44 -59 -2 -3 -4 -7 -22 -23 -26 -31 -34 -41 0
-10 -29 -37 -44 -59 -62 -2 -3 -4 -7 -8 -22 -23 -26 -27 -31 -34 -35 -41 -42 -57 0
-62 -59 -44 -37 -29 -10 -57 -42 -35 -27 -8 -41 -34 -26 -7 -31 -23 -4 -22 -3 -2 0
-2 -3 -4 -7 -8 -11 -22 -23 -26 -27 -30 -31 -34 -35 -38 -41 -42 -45 -57 -60 -63 0
-11 -8 -7 -4 -3 -2 -63 -60 -45 -38 -30 -57 -42 -35 -27 -41 -34 -26 -31 -23 -22 0
-2 -30 -27 -26 -23 -22 -11 -8 -7 -4 -3 -63 -60 -45 -38 -57 -42 -35 -41 -34 -31 0
-22 -23 -26 -27 -30 -2 -31 -34 -35 -38 -3 -41 -42 -45 -4 -57 -60 -7 -63 -8 -11 0
-22 -3 -38 -35 -34 -31 -2 -30 -27 -26 -23 -11 -8 -7 -4 -63 -60 -45 -57 -42 -41 0
-31 -34 -35 -38 -3 -22 -41 -42 -45 -4 -23 -57 -60 -7 -26 -63 -8 -27 -11 -30 -2 0
-31 -23 -4 -45 -42 -41 -22 -3 -38 -35 -34 -2 -30 -27 -26 -11 -8 -7 -63 -60 -57 0
-41 -42 -45 -4 -23 -31 -57 -60 -7 -26 -34 -63 -8 -27 -35 -11 -30 -38 -2 -3 -22 0
-41 -34 -26 -7 -60 -57 -31 -23 -4 -45 -42 -22 -3 -38 -35 -2 -30 -27 -11 -8 -63 0
-57 -60 -7 -26 -34 -41 -63 -8 -27 -35 -42 -11 -30 -38 -45 -2 -3 -4 -22 -23 -31 0
-57 -42 -35 -27 -8 -63 -41 -34 -26 -7 -60 -31 -23 -4 -45 -22 -3 -38 -2 -30 -11 0
-63 -8 -27 -35 -42 -57 -11 -30 -38 -45 -60 -2 -3 -4 -7 -22 -23 -26 -31 -34 -41 0
-11 -30 -38 -45 -60 -63 -2 -3 -4 -7 -8 -22 -23 -26 -27 -31 -34 -35 -41 -42 -57 0
-63 -60 -45 -38 -30 -11 -57 -42 -35 -27 -8 -41 -34 -26 -7 -31 -23 -4 -22 -3 -2 0
-2 -3 -4 -7 -9 -10 -22 -23 -26 -28 -29 -31 -34 -36 -37 -41 -43 -44 -58 -59 -64 0
-10 -9 -7 -4 -3 -2 -64 -59 -44 -37 -29 -58 -43 -36 -28 -41 -34 -26 -31 -23 -22 0
-2 -29 -28 -26 -23 -22 -10 -9 -7 -4 -3 -64 -59 -44 -37 -58 -43 -36 -41 -34 -31 0
-22 -23 -26 -28 -29 -2 -31 -34 -36 -37 -3 -41 -43 -44 -4 -58 -59 -7 -64 -9 -10 0
-22 -3 -37 -36 -34 -31 -2 -29 -28 -26 -23 -10 -9 -7 -4 -64 -59 -44 -58 -43 -41 0
-31 -34 -36 -37 -3 -22 -41 -43 -44 -4 -23 -58 -59 -7 -26 -64 -9 -28 -10 -29 -2 0
-31 -23 -4 -44 -43 -41 -22 -3 -37 -36 -34 -2 -29 -28 -26 -10 -9 -7 -64 -59 -58 0
-41 -43 -44 -4 -23 -31 -58 -59 -7 -26 -34 -64 -9 -28 -36 -10 -29 -37 -2 -3 -22 0
-41 -34 -26 -7 -59 -58 -31 -23 -4 -44 -43 -22 -3 -37 -36 -2 -29 -28 -10 -9 -64 0
-58 -59 -7 -26 -34 -41 -64 -9 -28 -36 -43 -10 -29 -37 -44 -2 -3 -4 -22 -23 -31 0
-58 -43 -36 -28 -9 -64 -41 -34 -26 -7 -59 -31 -23 -4 -44 -22 -3 -37 -2 -29 -10 0
-64 -9 -28 -36 -43 -58 -10 -29 -37 -44 -59 -2 -3 -4 -7 -22 -23 -26 -31 -34 -41 0
-10 -29 -37 -44 -59 -64 -2 -3 -4 -7 -9 -22 -23 -26 -28 -31 -34 -36 -41 -43 -58 0
-64 -59 -44 -37 -29 -10 -58 -43 -36 -28 -9 -41 -34 -26 -7 -31 -23 -4 -22 -3 -2 0
-2 -3 -4 -7 -9 -11 -22 -23 -26 -28 -30 -31 -34 -36 -38 -41 -43 -45 -58 -60 -65 0
-11 -9 -7 -4 -3 -2 -65 -60 -45 -38 -30 -58 -43 -36 -28 -41 -34 -26 -31 -23 -22 0
-2 -30 -28 -26 -23 -22 -11 -9 -7 -4 -3 -65 -60 -45 -38 -58 -43 -36 -41 -34 -31 0
-22 -23 -26 -28 -30 -2 -31 -34 -36 -38 -3 -41 -43 -45 -4 -58 -60 -7 -65 -9 -11 0
-22 -3 -38 -36 -34 -31 -2 -30 -28 -26 -23 -11 -9 -7 -4 -65 -60 -45 -58 -43 -41 0
-31 -34 -36 -38 -3 -22 -41 -43 -45 -4 -23 -58 -60 -7 -26 -65 -9 -28 -11 -30 -2 0
-31 -23 -4 -45 -43 -41 -22 -3 -38 -36 -34 -2 -30 -28 -26 -11 -9 -7 -65 -60 -58 0
-41 -43 -45 -4 -23 -31 -58 -60 -7 -26 -34 -65 -9 -28 -36 -11 -30 -38 -2 -3 -22 0
-41 -34 -26 -7 -60 -58 -31 -23 -4 -45 -43 -22 -3 -38 -36 -2 -30 -28 -11 -9 -65 0
-58 -60 -7 -26 -34 -41 -65 -9 -28 -36 -43 -11 -30 -38 -45 -2 -3 -4 -22 -23 -31 0
-58 -43 -36 -28 -9 -65 -41 -34 -26 -7 -60 -31 -23 -4 -45 -22 -3 -38 -2 -30 -11 0
-65 -9 -28 -36 -43 -58 -11 -30 -38 -45 -60 -2 -3 -4 -7 -22 -23 -26 -31 -34 -41 0
-11 -30 -38 -45 -60 -65 -2 -3 -4 -7 -9 -22 -23 -26 -28 -31 -34 -36 -41 -43 -58 0
-65 -60 -45 -38 -30 -11 -58 -43 -36 -28 -9 -41 -34 -26 -7 -31 -23 -4 -22 -3 -2 0
-2 -3 -4 -7 -10 -11 -22 -23 -26 -29 -30 -31 -34 -37 -38 -41 -44 -45 -59 -60 -66 0
-11 -10 -7 -4 -3 -2 -66 -60 -45 -38 -30 -59 -44 -37 -29 -41 -34 -26 -31 -23 -22 0
-2 -30 -29 -26 -23 -22 -11 -10 -7 -4 -3 -66 -60 -45 -38 -59 -44 -37 -41 -34 -31 0
-22 -23 -26 -29 -30 -2 -31 -34 -37 -38 -3 -41 -44 -45 -4 -59 -60 -7 -66 -10 -11 0
-22 -3 -38 -37 -34 -31 -2 -30 -29 -26 -23 -11 -10 -7 -4 -66 -60 -45 -59 -44 -41 0
-31 -34 -37 -38 -3 -22 -41 -44 -45 -4 -23 -59 -60 -7 -26 -66 -10 -29 -11 -30 -2 0
-31 -23 -4 -45 -44 -41 -22 -3 -38 -37 -34 -2 -30 -29 -26 -11 -10 -7 -66 -60 -59 0
-41 -44 -45 -4 -23 -31 -59 -60 -7 -26 -34 -66 -10 -29 -37 -11 -30 -38 -2 -3 -22 0
-41 -34 -26 -7 -60 -59 -31 -23 -4 -45 -44 -22 -3 -38 -37 -2 -30 -29 -11 -10 -66 0
-59 -60 -7 -26 -34 -41 -66 -10 -29 -37 -44 -11 -30 -38 -45 -2 -3 -4 -22 -23 -31 0
-59 -44 -37 -29 -10 -66 -41 -34 -26 -7 -60 -31 -23 -4 -45 -22 -3 -38 -2 -30 -11 0
-66 -10 -29 -37 -44 -59 -11 -30 -38 -45 -60 -2 -3 -4 -7 -22 -23 -26 -31 -34 -41 0
-11 -30 -38 -45 -60 -66 -2 -3 -4 -7 -10 -22 -23 -26 -29 -31 -34 -37 -41 -44 -59 0
-66 -60 -45 -38 -30 -11 -59 -44 -37 -29 -10 -41 -34 -26 -7 -31 -23 -4 -22 -3 -2 0
-2 -3 -4 -8 -9 -10 -22 -23 -27 -28 -29 -31 -35 -36 -37 -42 -43 -44 -61 -62 -64 0
-10 -9 -8 -4 -3 -2 -64 -62 -44 -37 -29 -61 -43 -36 -28 -42 -35 -27 -31 -23 -22 0
-2 -29 -28 -27 -23 -22 -10 -9 -8 -4 -3 -64 -62 -44 -37 -61 -43 -36 -42 -35 -31 0
-22 -23 -27 -28 -29 -2 -31 -35 -36 -37 -3 -42 -43 -44 -4 -61 -62 -8 -64 -9 -10 0
-22 -3 -37 -36 -35 -31 -2 -29 -28 -27 -23 -10 -9 -8 -4 -64 -62 -44 -61 -43 -42 0
-31 -35 -36 -37 -3 -22 -42 -43 -44 -4 -23 -61 -62 -8 -27 -64 -9 -28 -10 -29 -2 0
-31 -23 -4 -44 -43 -42 -22 -3 -37 -36 -35 -2 -29 -28 -27 -10 -9 -8 -64 -62 -61 0
-42 -43 -44 -4 -23 -31 -61 -62 -8 -27 -35 -64 -9 -28 -36 -10 -29 -37 -2 -3 -22 0
-42 -35 -27 -8 -62 -61 -31 -23 -4 -44 -43 -22 -3 -37 -36 -2 -29 -28 -10 -9 -64 0
-61 -62 -8 -27 -35 -42 -64 -9 -28 -36 -43 -10 -29 -37 -44 -2 -3 -4 -22 -23 -31 0
-61 -43 -36 -28 -9 -64 -42 -35 -27 -8 -62 -31 -23 -4 -44 -22 -3 -37 -2 -29 -10 0
-64 -9 -28 -36 -43 -61 -10 -29 -37 -44 -62 -2 -3 -4 -8 -22 -23 -27 -31 -35 -42 0
-10 -29 -37 -44 -62 -64 -2 -3 -4 -8 -9 -22 -23 -27 -28 -31 -35 -36 -42 -43 -61 0
-64 -62 -44 -37 -29 -10 -61 -43 -36 -28 -9 -42 -35 -27 -8 -31 -23 -4 -22 -3 -2 0
-2 -3 -4 -8 -9 -11 -22 -23 -27 -28 -30 -31 -35 -36 -38 -42 -43 -45 -61 -63 -65 0
-11 -9 -8 -4 -3 -2 -65 -63 -45 -38 -30 -61 -43 -36 -28 -42 -35 -27 -31 -23 -22 0
-2 -30 -28 -27 -23 -22 -11 -9 -8 -4 -3 -65 -63 -45 -38 -61 -43 -36 -42 -35 -31 0
-22 -23 -27 -28 -30 -2 -31 -35 -36 -38 -3 -42 -43 -45 -4 -61 -63 -8 -65 -9 -11 0
-22 -3 -38 -36 -35 -31 -2 -30 -28 -27 -23 -11 -9 -8 -4 -65 -63 -45 -61 -43 -42 0
-31 -35 -36 -38 -3 -22 -42 -43 -45 -4 -23 -61 -63 -8 -27 -65 -9 -28 -11 -30 -2 0
-31 -23 -4 -45 -43 -42 -22 -3 -38 -36 -35 -2 -30 -28 -27 -11 -9 -8 -65 -63 -61 0
-42 -43 -45 -4 -23 -31 -61 -63 -8 -27 -35 -65 -9 -28 -36 -11 -30 -38 -2 -3 -22 0
-42 -35 -27 -8 -63 -61 -31 -23 -4 -45 -43 -22 -3 -38 -36 -2 -30 -28 -11 -9 -65 0
-61 -63 -8 -27 -35 -42 -65 -9 -28 -36 -43 -11 -30 -38 -45 -2 -3 -4 -22 -23 -31 0
-61 -43 -36 -28 -9 -65 -42 -35 -27 -8 -63 -31 -23 -4 -45 -22 -3 -38 -2 -30 -11 0
-65 -9 -28 -36 -43 -61 -11 -30 -38 -45 -63 -2 -3 -4 -8 -22 -23 -27 -31 -35 -42 0
-11 -30 -38 -45 -63 -65 -2 -3 -4 -8 -9 -22 -23 -27 -28 -31 -35 -36 -42 -43 -61 0
-65 -63 -45 -38 -30 -11 -61 -43 -36 -28 -9 -42 -35 -27 -8 -31 -23 -4 -22 -3 -2 0
-2 -3 -4 -8 -10 -11 -22 -23 -27 -29 -30 -31 -35 -37 -38 -42 -44 -45 -62 -63 -66 0
-11 -10 -8 -4 -3 -2 -66 -63 -45 -38 -30 -62 -44 -37 -29 -42 -35 -27 -31 -23 -22 0
-2 -30 -29 -27 -23 -22 -11 -10 -8 -4 -3 -66 -63 -45 -38 -62 -44 -37 -42 -35 -31 0
-22 -23 -27 -29 -30 -2 -31 -35 -37 -38 -3 -42 -44 -45 -4 -62 -63 -8 -66 -10 -11 0
-22 -3 -38 -37 -35 -31 -2 -30 -29 -27 -23 -11 -10 -8 -4 -66 -63 -45 -62 -44 -42 0
-31 -35 -37 -38 -3 -22 -42 -44 -45 -4 -23 -62 -63 -8 -27 -66 -10 -29 -11 -30 -2 0
-31 -23 -4 -45 -44 -42 -22 -3 -38 -37 -35 -2 -30 -29 -27 -11 -10 -8 -66 -63 -62 0
-42 -44 -45 -4 -23 -31 -62 -63 -8 -27 -35 -66 -10 -29 -37 -11 -30 -38 -2 -3 -22 0
-42 -35 -27 -8 -63 -62 -31 -23 -4 -45 -44 -22 -3 -38 -37 -2 -30 -29 -11 -10 -66 0
-62 -63 -8 -27 -35 -42 -66 -10 -29 -37 -44 -11 -30 -38 -45 -2 -3 -4 -22 -23 -31 0
-62 -44 -37 -29 -10 -66 -42 -35 -27 -8 -63 -31 -23 -4 -45 -22 -3 -38 -2 -30 -11 0
-66 -10 -29 -37 -44 -62 -11 -30 -38 -45 -63 -2 -3 -4 -8 -22 -23 -27 -31 -35 -42 0
-11 -30 -38 -45 -63 -66 -2 -3 -4 -8 -10 -22 -23 -27 -29 -31 -35 -37 -42 -44 -62 0
-66 -63 -45 -38 -30 -11 -62 -44 -37 -29 -10 -42 -35 -27 -8 -31 -23 -4 -22 -3 -2 0
-2 -3 -4 -9 -10 -11 -22 -23 -28 -29 -30 -31 -36 -37 -38 -43 -44 -45 -64 -65 -66 0
-11 -10 -9 -4 -3 -2 -66 -65 -45 -38 -30 -64 -44 -37 -29 -43 -36 -28 -31 -23 -22 0
-2 -30 -29 -28 -23 -22 -11 -10 -9 -4 -3 -66 -65 -45 -38 -64 -44 -37 -43 -36 -31 0
-22 -23 -28 -29 -30 -2 -31 -36 -37 -38 -3 -43 -44 -45 -4 -64 -65 -9 -66 -10 -11 0
-22 -3 -38 -37 -36 -31 -2 -30 -29 -28 -23 -11 -10 -9 -4 -66 -65 -45 -64 -44 -43 0
-31 -36 -37 -38 -3 -22 -43 -44 -45 -4 -23 -64 -65 -9 -28 -66 -10 -29 -11 -30 -2 0
-31 -23 -4 -45 -44 -43 -22 -3 -38 -37 -36 -2 -30 -29 -28 -11 -10 -9 -66 -65 -64 0
-43 -44 -45 -4 -23 -31 -64 -65 -9 -28 -36 -66 -10 -29 -37 -11 -30 -38 -2 -3 -22 0
-43 -36 -28 -9 -65 -64 -31 -23 -4 -45 -44 -22 -3 -38 -37 -2 -30 -29 -11 -10 -66 0
-64 -65 -9 -28 -36 -43 -66 -10 -29 -37 -44 -11 -30 -38 -45 -2 -3 -4 -22 -23 -31 0
-64 -44 -37 -29 -10 -66 -43 -36 -28 -9 -65 -31 -23 -4 -45 -22 -3 -38 -2 -30 -11 0
-66 -10 -29 -37 -44 -64 -11 -30 -38 -45 -65 -2 -3 -4 -9 -22 -23 -28 -31 -36 -43 0
-11 -30 -38 -45 -65 -66 -2 -3 -4 -9 -10 -22 -23 -28 -29 -31 -36 -37 -43 -44 -64 0
-66 -65 -45 -38 -30 -11 -64 -44 -37 -29 -10 -43 -36 -28 -9 -31 -23 -4 -22 -3 -2 0
-2 -3 -5 -6 -7 -8 -22 -24 -25 -26 -27 -32 -33 -34 -35 -46 -47 -48 -52 -53 -57 0
-8 -7 -6 -5 -3 -2 -57 -53 -48 -35 -27 -52 -47 -34 -26 -46 -33 -25 -32 -24 -22 0
-2 -27 -26 -25 -24 -22 -8 -7 -6 -5 -3 -57 -53 -48 -35 -52 -47 -34 -46 -33 -32 0
-22 -24 -25 -26 -27 -2 -32 -33 -34 -35 -3 -46 -47 -48 -5 -52 -53 -6 -57 -7 -8 0
-22 -3 -35 -34 -33 -32 -2 -27 -26 -25 -24 -8 -7 -6 -5 -57 -53 -48 -52 -47 -46 0
-32 -33 -34 -35 -3 -22 -46 -47 -48 -5 -24 -52 -53 -6 -25 -57 -7 -26 -8 -27 -2 0
-32 -24 -5 -48 -47 -46 -22 -3 -35 -34 -33 -2 -27 -26 -25 -8 -7 -6 -57 -53 -52 0
-46 -47 -48 -5 -24 -32 -52 -53 -6 -25 -33 -57 -7 -26 -34 -8 -27 -35 -2 -3 -22 0
-46 -33 -25 -6 -53 -52 -32 -24 -5 -48 -47 -22 -3 -35 -34 -2 -27 -26 -8 -7 -57 0
-52 -53 -6 -25 -33 -46 -57 -7 -26 -34 -47 -8 -27 -35 -48 -2 -3 -5 -22 -24 -32 0
-52 -47 -34 -26 -7 -57 -46 -33 -25 -6 -53 -32 -24 -5 -48 -22 -3 -35 -2 -27 -8 0
-57 -7 -26 -34 -47 -52 -8 -27 -35 -48 -53 -2 -3 -5 -6 -22 -24 -25 -32 -33 -46 0
-8 -27 -35 -48 -53 -57 -2 -3 -5 -6 -7 -22 -24 -25 -26 -32 -33 -34 -46 -47 -52 0
-57 -53 -48 -35 -27 -8 -52 -47 -34 -26 -7 -46 -33 -25 -6 -32 -24 -5 -22 -3 -2 0
-2 -3 -5 -6 -7 -9 -22 -24 -25 -26 -28 -32 -33 -34 -36 -46 -47 -49 -52 -54 -58 0
-9 -7 -6 -5 -3 -2 -58 -54 -49 -36 -28 -52 -47 -34 -26 -46 -33 -25 -32 -24 -22 0
-2 -28 -26 -25 -24 -22 -9 -7 -6 -5 -3 -58 -54 -49 -36 -52 -47 -34 -46 -33 -32 0
-22 -24 -25 -26 -28 -2 -32 -33 -34 -36 -3 -46 -47 -49 -5 -52 -54 -6 -58 -7 -9 0
-22 -3 -36 -34 -33 -32 -2 -28 -26 -25 -24 -9 -7 -6 -5 -58 -54 -49 -52 -47 -46 0
-32 -33 -34 -36 -3 -22 -46 -47 -49 -5 -24 -52 -54 -6 -25 -58 -7 -26 -9 -28 -2 0
-32 -24 -5 -49 -47 -46 -22 -3 -36 -34 -33 -2 -28 -26 -25 -9 -7 -6 -58 -54 -52 0
-46 -47 -49 -5 -24 -32 -52 -54 -6 -25 -33 -58 -7 -26 -34 -9 -28 -36 -2 -3 -22 0
-46 -33 -25 -6 -54 -52 -32 -24 -5 -49 -47 -22 -3 -36 -34 -2 -28 -26 -9 -7 -58 0
-52 -54 -6 -25 -33 -46 -58 -7 -26 -34 -47 -9 -28 -36 -49 -2 -3 -5 -22 -24 -32 0
-52 -47 -34 -26 -7 -58 -46 -33 -25 -6 -54 -32 -24 -5 -49 -22 -3 -36 -2 -28 -9 0
-58 -7 -26 -34 -47 -52 -9 -28 -36 -49 -54 -2 -3 -5 -6 -22 -24 -25 -32 -33 -46 0
-9 -28 -36 -49 -54 -58 -2 -3 -5 -6 -7 -22 -24 -25 -26 -32 -33 -34 -46 -47 -52 0
-58 -54 -49 -36 -28 -9 -52 -47 -34 -26 -7 -46 -33 -25 -6 -32 -24 -5 -22 -3 -2 0
-2 -3 -5 -6 -7 -10 -22 -24 -25 -26 -29 -32 -33 -34 -37 -46 -47 -50 -52 -55 -59 0
-10 -7 -6 -5 -3 -2 -59 -55 -50 -37 -29 -52 -47 -34 -26 -46 -33 -25 -32 -24 -22 0
-2 -29 -26 -25 -24 -22 -10 -7 -6 -5 -3 -59 -55 -50 -37 -52 -47 -34 -46 -33 -32 0
-22 -24 -25 -26 -29 -2 -32 -33 -34 -37 -3 -46 -47 -50 -5 -52 -55 -6 -59 -7 -10 0
-22 -3 -37 -34 -33 -32 -2 -29 -26 -25 -24 -10 -7 -6 -5 -59 -55 -50 -52 -47 -46 0
-32 -33 -34 -37 -3 -22 -46 -47 -50 -5 -24 -52 -55 -6 -25 -59 -7 -26 -10 -29 -2 0
-32 -24 -5 -50 -47 -46 -22 -3 -37 -34 -33 -2 -29 -26 -25 -10 -7 -6 -59 -55 -52 0
-46 -47 -50 -5 -24 -32 -52 -55 -6 -25 -33 -59 -7 -26 -34 -10 -29 -37 -2 -3 -22 0
-46 -33 -25 -6 -55 -52 -32 -24 -5 -50 -47 -22 -3 -37 -34 -2 -29 -26 -10 -7 -59 0
-52 -55 -6 -25 -33 -46 -59 -7 -26 -34 -47 -10 -29 -37 -50 -2 -3 -5 -22 -24 -32 0
-52 -47 -34 -26 -7 -59 -46 -33 -25 -6 -55 -32 -24 -5 -50 -22 -3 -37 -2 -29 -10 0
-59 -7 -26 -34 -47 -52 -10 -29 -37 -50 -55 -2 -3 -5 -6 -22 -24 -25 -32 -33 -46 0
-10 -29 -37 -50 -55 -59 -2 -3 -5 -6 -7 -22 -24 -25 -26 -32 -33 -34 -46 -47 -52 0
-59 -55 -50 -37 -29 -10 -52 -47 -34 -26 -7 -46 -33 -25 -6 -32 -24 -5 -22 -3 -2 0
-2 -3 -5 -6 -7 -11 -22 -24 -25 -26 -30 -32 -33 -34 -38 -46 -47 -51 -52 -56 -60 0
-11 -7 -6 -5 -3 -2 -60 -56 -51 -38 -30 -52 -47 -34 -26 -46 -33 -25 -32 -24 -22 0
-2 -30 -26 -25 -24 -22 -11 -7 -6 -5 -3 -60 -56 -51 -38 -52 -47 -34 -46 -33 -32 0
-22 -24 -25 -26 -30 -2 -32 -33 -34 -38 -3 -46 -47 -51 -5 -52 -56 -6 -60 -7 -11 0
-22 -3 -38 -34 -33 -32 -2 -30 -26 -25 -24 -11 -7 -6 -5 -60 -56 -51 -52 -47 -46 0
-32 -33 -34 -38 -3 -22 -46 -47 -51 -5 -24 -52 -56 -6 -25 -60 -7 -26 -11 -30 -2 0
-32 -24 -5 -51 -47 -46 -22 -3 -38 -34 -33 -2 -30 -26 -25 -11 -7 -6 -60 -56 -52 0
-46 -47 -51 -5 -24 -32 -52 -56 -6 -25 -33 -60 -7 -26 -34 -11 -30 -38 -2 -3 -22 0
-46 -33 -25 -6 -56 -52 -32 -24 -5 -51 -47 -22 -3 -38 -34 -2 -30 -26 -11 -7 -60 0
-52 -56 -6 -25 -33 -46 -60 -7 -26 -34 -47 -11 -30 -38 -51 -2 -3 -5 -22 -24 -32 0
-52 -47 -34 -26 -7 -60 -46 -33 -25 -6 -56 -32 -24 -5 -51 -22 -3 -38 -2 -30 -11 0
-60 -7 -26 -34 -47 -52 -11 -30 -38 -51 -56 -2 -3 -5 -6 -22 -24 -25 -32 -33 -46 0
-11 -30 -38 -51 -56 -60 -2 -3 -5 -6 -7 -22 -24 -25 -26 -32 -33 -34 -46 -47 -52 0
-60 -56 -51 -38 -30 -11 -52 -47 -34 -26 -7 -46 -33 -25 -6 -32 -24 -5 -22 -3 -2 0
-2 -3 -5 -6 -8 -9 -22 -24 -25 -27 -28 -32 -33 -35 -36 -46 -48 -49 -53 -54 -61 0
-9 -8 -6 -5 -3 -2 -61 -54 -49 -36 -28 -53 -48 -35 -27 -46 -33 -25 -32 -24 -22 0
-2 -28 -27 -25 -24 -22 -9 -8 -6 -5 -3 -61 -54 -49 -36 -53 -48 -35 -46 -33 -32 0
-22 -24 -25 -27 -28 -2 -32 -33 -35 -36 -3 -46 -48 -49 -5 -53 -54 -6 -61 -8 -9 0
-22 -3 -36 -35 -33 -32 -2 -28 -27 -25 -24 -9 -8 -6 -5 -61 -54 -49 -53 -48 -46 0
-32 -33 -35 -36 -3 -22 -46 -48 -49 -5 -24 -53 -54 -6 -25 -61 -8 -27 -9 -28 -2 0
-32 -24 -5 -49 -48 -46 -22 -3 -36 -35 -33 -2 -28 -27 -25 -9 -8 -6 -61 -54 -53 0
-46 -48 -49 -5 -24 -32 -53 -54 -6 -25 -33 -61 -8 -27 -35 -9 -28 -36 -2 -3 -22 0
-46 -33 -25 -6 -54 -53 -32 -24 -5 -49 -48 -22 -3 -36 -35 -2 -28 -27 -9 -8 -61 0
-53 -54 -6 -25 -33 -46 -61 -8 -27 -35 -48 -9 -28 -36 -49 -2 -3 -5 -22 -24 -32 0
-53 -48 -35 -27 -8 -61 -46 -33 -25 -6 -54 -32 -24 -5 -49 -22 -3 -36 -2 -28 -9 0
-61 -8 -27 -35 -48 -53 -9 -28 -36 -49 -54 -2 -3 -5 -6 -22 -24 -25 -32 -33 -46 0
-9 -28 -36 -49 -54 -61 -2 -3 -5 -6 -8 -22 -24 -25 -27 -32 -33 -35 -46 -48 -53 0
-61 -54 -49 -36 -28 -9 -53 -48 -35 -27 -8 -46 -33 -25 -6 -32 -24 -5 -22 -3 -2 0
-2 -3 -5 -6 -8 -10 -22 -24 -25 -27 -29 -32 -33 -35 -37 -46 -48 -50 -53 -55 -62 0
-10 -8 -6 -5 -3 -2 -62 -55 -50 -37 -29 -53 -48 -35 -27 -46 -33 -25 -32 -24 -22 0
-2 -29 -27 -25 -24 -22 -10 -8 -6 -5 -3 -62 -55 -50 -37 -53 -48 -35 -46 -33 -32 0
-22 -24 -25 -27 -29 -2 -32 -33 -35 -37 -3 -46 -48 -50 -5 -53 -55 -6 -62 -8 -10 0
-22 -3 -37 -35 -33 -32 -2 -29 -27 -25 -24 -10 -8 -6 -5 -62 -55 -50 -53 -48 -46 0
-32 -33 -35 -37 -3 -22 -46 -48 -50 -5 -24 -53 -55 -6 -25 -62 -8 -27 -10 -29 -2 0
-32 -24 -5 -50 -48 -46 -22 -3 -37 -35 -33 -2 -29 -27 -25 -10 -8 -6 -62 -55 -53 0
-46 -48 -50 -5 -24 -32 -53 -55 -6 -25 -33 -62 -8 -27 -35 -10 -29 -37 -2 -3 -22 0
-46 -33 -25 -6 -55 -53 -32 -24 -5 -50 -48 -22 -3 -37 -35 -2 -29 -27 -10 -8 -62 0
-53 -55 -6 -25 -33 -46 -62 -8 -27 -35 -48 -10 -29 -37 -50 -2 -3 -5 -22 -24 -32 0
-53 -48 -35 -27 -8 -62 -46 -33 -25 -6 -55 -32 -24 -5 -50 -22 -3 -37 -2 -29 -10 0
-62 -8 -27 -35 -48 -53 -10 -29 -37 -50 -55 -2 -3 -5 -6 -22 -24 -25 -32 -33 -46 0
-10 -29 -37 -50 -55 -62 -2 -3 -5 -6 -8 -22 -24 -25 -27 -32 -33 -35 -46 -48 -53 0
-62 -55 -50 -37 -29 -10 -53 -48 -35 -27 -8 -46 -33 -25 -6 -32 -24 -5 -22 -3 -2 0
-2 -3 -5 -6 -8 -11 -22 -24 -25 -27 -30 -32 -33 -35 -38 -46 -48 -51 -53 -56 -63 0
-11 -8 -6 -5 -3 -2 -63 -56 -51 -38 -30 -53 -48 -35 -27 -46 -33 -25 -32 -24 -22 0
-2 -30 -27 -25 -24 -22 -11 -8 -6 -5 -3 -63 -56 -51 -38 -53 -48 -35 -46 -33 -32 0
-22 -24 -25 -27 -30 -2 -32 -33 -35 -38 -3 -46 -48 -51 -5 -53 -56 -6 -63 -8 -11 0
-22 -3 -38 -35 -33 -32 -2 -30 -27 -25 -24 -11 -8 -6 -5 -63 -56 -51 -53 -48 -46 0
-32 -33 -35 -38 -3 -22 -46 -48 -51 -5 -24 -53 -56 -6 -25 -63 -8 -27 -11 -30 -2 0
-32 -24 -5 -51 -48 -46 -22 -3 -38 -35 -33 -2 -30 -27 -25 -11 -8 -6 -63 -56 -53 0
-46 -48 -51 -5 -24 -32 -53 -56 -6 -25 -33 -63 -8 -27 -35 -11 -30 -38 -2 -3 -22 0
-46 -33 -25 -6 -56 -53 -32 -24 -5 -51 -48 -22 -3 -38 -35 -2 -30 -27 -11 -8 -63 0
-53 -56 -6 -25 -33 -46 -63 -8 -27 -35 -48 -11 -30 -38 -51 -2 -3 -5 -22 -24 -32 0
-53 -48 -35 -27 -8 -63 -46 -33 -25 -6 -56 -32 -24 -5 -51 -22 -3 -38 -2 -30 -11 0
-63 -8 -27 -35 -48 -53 -11 -30 -38 -51 -56 -2 -3 -5 -6 -22 -24 -25 -32 -33 -46 0
-11 -30 -38 -51 -56 -63 -2 -3 -5 -6 -8 -22 -24 -25 -27 -32 -33 -35 -46 -48 -53 0
-63 -56 -51 -38 -30 -11 -53 -48 -35 -27 -8 -46 -33 -25 -6 -32 -24 -5 -22 -3 -2 0
-2 -3 -5 -6 -9 -10 -22 -24 -25 -28 -29 -32 -33 -36 -37 -46 -49 -50 -54 -55 -64 0
-10 -9 -6 -5 -3 -2 -64 -55 -50 -37 -29 -54 -49 -36 -28 -46 -33 -25 -32 -24 -22 0
-2 -29 -28 -25 -24 -22 -10 -9 -6 -5 -3 -64 -55 -50 -37 -54 -49 -36 -46 -33 -32 0
-22 -24 -25 -28 -29 -2 -32 -33 -36 -37 -3 -46 -49 -50 -5 -54 -55 -6 -64 -9 -10 0
-22 -3 -37 -36 -33 -32 -2 -29 -28 -25 -24 -10 -9 -6 -5 -64 -55 -50 -54 -49 -46 0
-32 -33 -36 -37 -3 -22 -46 -49 -50 -5 -24 -54 -55 -6 -25 -64 -9 -28 -10 -29 -2 0
-32 -24 -5 -50 -49 -46 -22 -3 -37 -36 -33 -2 -29 -28 -25 -10 -9 -6 -64 -55 -54 0
-46 -49 -50 -5 -24 -32 -54 -55 -6 -25 -33 -64 -9 -28 -36 -10 -29 -37 -2 -3 -22 0
-46 -33 -25 -6 -55 -54 -32 -24 -5 -50 -49 -22 -3 -37 -36 -2 -29 -28 -10 -9 -64 0
-54 -55 -6 -25 -33 -46 -64 -9 -28 -36 -49 -10 -29 -37 -50 -2 -3 -5 -22 -24 -32 0
-54 -49 -36 -28 -9 -64 -46 -33 -25 -6 -55 -32 -24 -5 -50 -22 -3 -37 -2 -29 -10 0
-64 -9 -28 -36 -49 -54 -10 -29 -37 -50 -55 -2 -3 -5 -6 -22 -24 -25 -32 -33 -46 0
-10 -29 -37 -50 -55 -64 -2 -3 -5 -6 -9 -22 -24 -25 -28 -32 -33 -36 -46 -49 -54 0
-64 -55 -50 -37 -29 -10 -54 -49 -36 -28 -9 -46 -33 -25 -6 -32 -24 -5 -22 -3 -2 0
-2 -3 -5 -6 -9 -11 -22 -24 -25 -28 -30 -32 -33 -36 -38 -46 -49 -51 -54 -56 -65 0
-11 -9 -6 -5 -3 -2 -65 -56 -51 -38 -30 -54 -49 -36 -28 -46 -33 -25 -32 -24 -22 0
-2 -30 -28 -25 -24 -22 -11 -9 -6 -5 -3 -65 -56 -51 -38 -54 -49 -36 -46 -33 -32 0
-22 -24 -25 -28 -30 -2 -32 -33 -36 -38 -3 -46 -49 -51 -5 -54 -56 -6 -65 -9 -11 0
-22 -3 -38 -36 -33 -32 -2 -30 -28 -25 -24 -11 -9 -6 -5 -65 -56 -51 -54 -49 -46 0
-32 -33 -36 -38 -3 -22 -46 -49 -51 -5 -24 -54 -56 -6 -25 -65 -9 -28 -11 -30 -2 0
-32 -24 -5 -51 -49 -46 -22 -3 -38 -36 -33 -2 -30 -28 -25 -11 -9 -6 -65 -56 -54 0
-46 -49 -51 -5 -24 -32 -54 -56 -6 -25 -33 -65 -9 -28 -36 -11 -30 -38 -2 -3 -22 0
-46 -33 -25 -6 -56 -54 -32 -24 -5 -51 -49 -22 -3 -38 -36 -2 -30 -28 -11 -9 -65 0
-54 -56 -6 -25 -33 -46 -65 -9 -28 -36 -49 -11 -30 -38 -51 -2 -3 -5 -22 -24 -32 0
-54 -49 -36 -28 -9 -65 -46 -33 -25 -6 -56 -32 -24 -5 -51 -22 -3 -38 -2 -30 -11 0
-65 -9 -28 -36 -49 -54 -11 -30 -38 -51 -56 -2 -3 -5 -6 -22 -24 -25 -32 -33 -46 0
-11 -30 -38 -51 -56 -65 -2 -3 -5 -6 -9 -22 -24 -25 -28 -32 -33 -36 -46 -49 -54 0
-65 -56 -51 -38 -30 -11 -54 -49 -36 -28 -9 -46 -33 -25 -6 -32 -24 -5 -22 -3 -2 0
-2 -3 -5 -6 -10 -11 -22 -24 -25 -29 -30 -32 -33 -37 -38 -46 -50 -51 -55 -56 -66 0
-11 -10 -6 -5 -3 -2 -66 -56 -51 -38 -30 -55 -50 -37 -29 -46 -33 -25 -32 -24 -22 0
-2 -30 -29 -25 -24 -22 -11 -10 -6 -5 -3 -66 -56 -51 -38 -55 -50 -37 -46 -33 -32 0
-22 -24 -25 -29 -30 -2 -32 -33 -37 -38 -3 -46 -50 -51 -5 -55 -56 -6 -66 -10 -11 0
-22 -3 -38 -37 -33 -32 -2 -30 -29 -25 -24 -11 -10 -6 -5 -66 -56 -51 -55 -50 -46 0
-32 -33 -37 -38 -3 -22 -46 -50 -51 -5 -24 -55 -56 -6 -25 -66 -10 -29 -11 -30 -2 0
-32 -24 -5 -51 -50 -46 -22 -3 -38 -37 -33 -2 -30 -29 -25 -11 -10 -6 -66 -56 -55 0
-46 -50 -51 -5 -24 -32 -55 -56 -6 -25 -33 -66 -10 -29 -37 -11 -30 -38 -2 -3 -22 0
-46 -33 -25 -6 -56 -55 -32 -24 -5 -51 -50 -22 -3 -38 -37 -2 -30 -29 -11 -10 -66 0
-55 -56 -6 -25 -33 -46 -66 -10 -29 -37 -50 -11 -30 -38 -51 -2 -3 -5 -22 -24 -32 0
-55 -50 -37 -29 -10 -66 -46 -33 -25 -6 -56 -32 -24 -5 -51 -22 -3 -38 -2 -30 -11 0
-66 -10 -29 -37 -50 -55 -11 -30 -38 -51 -56 -2 -3 -5 -6 -22 -24 -25 -32 -33 -46 0
-11 -30 -38 -51 -56 -66 -2 -3 -5 -6 -10 -22 -24 -25 -29 -32 -33 -37 -46 -50 -55 0
-66 -56 -51 -38 -30 -11 -55 -50 -37 -29 -10 -46 -33 -25 -6 -32 -24 -5 -22 -3 -2 0
-2 -3 -5 -7 -8 -9 -22 -24 -26 -27 -28 -32 -34 -35 -36 -47 -48 -49 -57 -58 -61 0
-9 -8 -7 -5 -3 -2 -61 -58 -49 -36 -28 -57 -48 -35 -27 -47 -34 -26 -32 -24 -22 0
-2 -28 -27 -26 -24 -22 -9 -8 -7 -5 -3 -61 -58 -49 -36 -57 -48 -35 -47 -34 -32 0
-22 -24 -26 -27 -28 -2 -32 -34 -35 -36 -3 -47 -48 -49 -5 -57 -58 -7 -61 -8 -9 0
-22 -3 -36 -35 -34 -32 -2 -28 -27 -26 -24 -9 -8 -7 -5 -61 -58 -49 -57 -48 -47 0
-32 -34 -35 -36 -3 -22 -47 -48 -49 -5 -24 -57 -58 -7 -26 -61 -8 -27 -9 -28 -2 0
-32 -24 -5 -49 -48 -47 -22 -3 -36 -35 -34 -2 -28 -27 -26 -9 -8 -7 -61 -58 -57 0
-47 -48 -49 -5 -24 -32 -57 -58 -7 -26 -34 -61 -8 -27 -35 -9 -28 -36 -2 -3 -22 0
-47 -34 -26 -7 -58 -57 -32 -24 -5 -49 -48 -22 -3 -36 -35 -2 -28 -27 -9 -8 -61 0
-57 -58 -7 -26 -34 -47 -61 -8 -27 -35 -48 -9 -28 -36 -49 -2 -3 -5 -22 -24 -32 0
-57 -48 -35 -27 -8 -61 -47 -34 -26 -7 -58 -32 -24 -5 -49 -22 -3 -36 -2 -28 -9 0
-61 -8 -27 -35 -48 -57 -9 -28 -36 -49 -58 -2 -3 -5 -7 -22 -24 -26 -32 -34 -47 0
-9 -28 -36 -49 -58 -61 -2 -3 -5 -7 -8 -22 -24 -26 -27 -32 -34 -35 -47 -48 -57 0
-61 -58 -49 -36 -28 -9 -57 -48 -35 -27 -8 -47 -34 -26 -7 -32 -24 -5 -22 -3 -2 0
-2 -3 -5 -7 -8 -10 -22 -24 -26 -27 -29 -32 -34 -35 -37 -47 -48 -50 -57 -59 -62 0
-10 -8 -7 -5 -3 -2 -62 -59 -50 -37 -29 -57 -48 -35 -27 -47 -34 -26 -32 -24 -22 0
-2 -29 -27 -26 -24 -22 -10 -8 -7 -5 -3 -62 -59 -50 -37 -57 -48 -35 -47 -34 -32 0
-22 -24 -26 -27 -29 -2 -32 -34 -35 -37 -3 -47 -48 -50 -5 -57 -59 -7 -62 -8 -10 0
-22 -3 -37 -35 -34 -32 -2 -29 -27 -26 -24 -10 -8 -7 -5 -62 -59 -50 -57 -48 -47 0
-32 -34 -35 -37 -3 -22 -47 -48 -50 -5 -24 -57 -59 -7 -26 -62 -8 -27 -10 -29 -2 0
-32 -24 -5 -50 -48 -47 -22 -3 -37 -35 -34 -2 -29 -27 -26 -10 -8 -7 -62 -59 -57 0
-47 -48 -50 -5 -24 -32 -57 -59 -7 -26 -34 -62 -8 -27 -35 -10 -29 -37 -2 -3 -22 0
-47 -34 -26 -7 -59 -57 -32 -24 -5 -50 -48 -22 -3 -37 -35 -2 -29 -27 -10 -8 -62 0
-57 -59 -7 -26 -34 -47 -62 -8 -27 -35 -48 -10 -29 -37 -50 -2 -3 -5 -22 -24 -32 0
-57 -48 -35 -27 -8 -62 -47 -34 -26 -7 -59 -32 -24 -5 -50 -22 -3 -37 -2 -29 -10 0
-62 -8 -27 -35 -48 -57 -10 -29 -37 -50 -59 -2 -3 -5 -7 -22 -24 -26 -32 -34 -47 0
-10 -29 -37 -50 -59 -62 -2 -3 -5 -7 -8 -22 -24 -26 -27 -32 -34 -35 -47 -48 -57 0
-62 -59 -50 -37 -29 -10 -57 -48 -35 -27 -8 -47 -34 -26 -7 -32 -24 -5 -22 -3 -2 0
-2 -3 -5 -7 -8 -11 -22 -24 -26 -27 -30 -32 -34 -35 -38 -47 -48 -51 -57 -60 -63 0
-11 -8 -7 -5 -3 -2 -63 -60 -51 -38 -30 -57 -48 -35 -27 -47 -34 -26 -32 -24 -22 0
-2 -30 -27 -26 -24 -22 -11 -8 -7 -5 -3 -63 -60 -51 -38 -57 -48 -35 -47 -34 -32 0
-22 -24 -26 -27 -30 -2 -32 -34 -35 -38 -3 -47 -48 -51 -5 -57 -60 -7 -63 -8 -11 0
-22 -3 -38 -35 -34 -32 -2 -30 -27 -26 -24 -11 -8 -7 -5 -63 -60 -51 -57 -48 -47 0
-32 -34 -35 -38 -3 -22 -47 -48 -51 -5 -24 -57 -60 -7 -26 -63 -8 -27 -11 -30 -2 0
-32 -24 -5 -51 -48 -47 -22 -3 -38 -35 -34 -2 -30 -27 -26 -11 -8 -7 -63 -60 -57 0
-47 -48 -51 -5 -24 -32 -57 -60 -7 -26 -34 -63 -8 -27 -35 -11 -30 -38 -2 -3 -22 0
-47 -34 -26 -7 -60 -57 -32 -24 -5 -51 -48 -22 -3 -38 -35 -2 -30 -27 -11 -8 -63 0
-57 -60 -7 -26 -34 -47 -63 -8 -27 -35 -48 -11 -30 -38 -51 -2 -3 -5 -22 -24 -32 0
-57 -48 -35 -27 -8 -63 -47 -34 -26 -7 -60 -32 -24 -5 -51 -22 -3 -38 -2 -30 -11 0
-63 -8 -27 -35 -48 -57 -11 -30 -38 -51 -60 -2 -3 -5 -7 -22 -24 -26 -32 -34 -47 0
-11 -30 -38 -51 -60 -63 -2 -3 -5 -7 -8 -22 -24 -26 -27 -32 -34 -35 -47 -48 -57 0
-63 -60 -51 -38 -30 -11 -57 -48 -35 -27 -8 -47 -34 -26 -7 -32 -24 -5 -22 -3 -2 0
-2 -3 -5 -7 -9 -10 -22 -24 -26 -28 -29 -32 -34 -36 -37 -47 -49 -50 -58 -59 -64 0
-10 -9 -7 -5 -3 -2 -64 -59 -50 -37 -29 -58 -49 -36 -28 -47 -34 -26 -32 -24 -22 0
-2 -29 -28 -26 -24 -22 -10 -9 -7 -5 -3 -64 -59 -50 -37 -58 -49 -36 -47 -34 -32 0
-22 -24 -26 -28 -29 -2 -32 -34 -36 -37 -3 -47 -49 -50 -5 -58 -59 -7 -64 -9 -10 0
-22 -3 -37 -36 -34 -32 -2 -29 -28 -26 -24 -10 -9 -7 -5 -64 -59 -50 -58 -49 -47 0
-32 -34 -36 -37 -3 -22 -47 -49 -50 -5 -24 -58 -59 -7 -26 -64 -9 -28 -10 -29 -2 0
-32 -24 -5 -50 -49 -47 -22 -3 -37 -36 -34 -2 -29 -28 -26 -10 -9 -7 -64 -59 -58 0
-47 -49 -50 -5 -24 -32 -58 -59 -7 -26 -34 -64 -9 -28 -36 -10 -29 -37 -2 -3 -22 0
-47 -34 -26 -7 -59 -58 -32 -24 -5 -50 -49 -22 -3 -37 -36 -2 -29 -28 -10 -9 -64 0
-58 -59 -7 -26 -34 -47 -64 -9 -28 -36 -49 -10 -29 -37 -50 -2 -3 -5 -22 -24 -32 0
-58 -49 -36 -28 -9 -64 -47 -34 -26 -7 -59 -32 -24 -5 -50 -22 -3 -37 -2 -29 -10 0
-64 -9 -28 -36 -49 -58 -10 -29 -37 -50 -59 -2 -3 -5 -7 -22 -24 -26 -32 -34 -47 0
-10 -29 -37 -50 -59 -64 -2 -3 -5 -7 -9 -22 -24 -26 -28 -32 -34 -36 -47 -49 -58 0
-64 -59 -50 -37 -29 -10 -58 -49 -36 -28 -9 -47 -34 -26 -7 -32 -24 -5 -22 -3 -2 0
-2 -3 -5 -7 -9 -11 -22 -24 -26 -28 -30 -32 -34 -36 -38 -47 -49 -51 -58 -60 -65 0
-11 -9 -7 -5 -3 -2 -65 -60 -51 -38 -30 -58 -49 -36 -28 -47 -34 -26 -32 -24 -22 0
-2 -30 -28 -26 -24 -22 -11 -9 -7 -5 -3 -65 -60 -51 -38 -58 -49 -36 -47 -34 -32 0
-22 -24 -26 -28 -30 -2 -32 -34 -36 -38 -3 -47 -49 -51 -5 -58 -60 -7 -65 -9 -11 0
-22 -3 -38 -36 -34 -32 -2 -30 -28 -26 -24 -11 -9 -7 -5 -65 -60 -51 -58 -49 -47 0
-32 -34 -36 -38 -3 -22 -47 -49 -51 -5 -24 -58 -60 -7 -26 -65 -9 -28 -11 -30 -2 0
-32 -24 -5 -51 -49 -47 -22 -3 -38 -36 -34 -2 -30 -28 -26 -11 -9 -7 -65 -60 -58 0
-47 -49 -51 -5 -24 -32 -58 -60 -7 -26 -34 -65 -9 -28 -36 -11 -30 -38 -2 -3 -22 0
-47 -34 -26 -7 -60 -58 -32 -24 -5 -51 -49 -22 -3 -38 -36 -2 -30 -28 -11 -9 -65 0
-58 -60 -7 -26 -34 -47 -65 -9 -28 -36 -49 -11 -30 -38 -51 -2 -3 -5 -22 -24 -32 0
-58 -49 -36 -28 -9 -65 -47 -34 -26 -7 -60 -32 -24 -5 -51 -22 -3 -38 -2 -30 -11 0
-65 -9 -28 -36 -49 -58 -11 -30 -38 -51 -60 -2 -3 -5 -7 -22 -24 -26 -32 -34 -47 0
-11 -30 -38 -51 -60 -65 -2 -3 -5 -7 -9 -22 -24 -26 -28 -32 -34 -36 -47 -49 -58 0
-65 -60 -51 -38 -30 -11 -58 -49 -36 -28 -9 -47 -34 -26 -7 -32 -24 -5 -22 -3 -2 0
-2 -3 -5 -7 -10 -11 -22 -24 -26 -29 -30 -32 -34 -37 -38 -47 -50 -51 -59 -60 -66 0
-11 -10 -7 -5 -3 -2 -66 -60 -51 -38 -30 -59 -50 -37 -29 -47 -34 -26 -32 -24 -22 0
-2 -30 -29 -26 -24 -22 -11 -10 -7 -5 -3 -66 -60 -51 -38 -59 -50 -37 -47 -34 -32 0
-22 -24 -26 -29 -30 -2 -32 -34 -37 -38 -3 -47 -50 -51 -5 -59 -60 -7 -66 -10 -11 0
-22 -3 -38 -37 -34 -32 -2 -30 -29 -26 -24 -11 -10 -7 -5 -66 -60 -51 -59 -50 -47 0
-32 -34 -37 -38 -3 -22 -47 -50 -51 -5 -24 -59 -60 -7 -26 -66 -10 -29 -11 -30 -2 0
-32 -24 -5 -51 -50 -47 -22 -3 -38 -37 -34 -2 -30 -29 -26 -11 -10 -7 -66 -60 -59 0
-47 -50 -51 -5 -24 -32 -59 -60 -7 -26 -34 -66 -10 -29 -37 -11 -30 -38 -2 -3 -22 0
-47 -34 -26 -7 -60 -59 -32 -24 -5 -51 -50 -22 -3 -38 -37 -2 -30 -29 -11 -10 -66 0
-59 -60 -7 -26 -34 -47 -66 -10 -29 -37 -50 -11 -30 -38 -51 -2 -3 -5 -22 -24 -32 0
-59 -50 -37 -29 -10 -66 -47 -34 -26 -7 -60 -32 -24 -5 -51 -22 -3 -38 -2 -30 -11 0
-66 -10 -29 -37 -50 -59 -11 -30 -38 -51 -60 -2 -3 -5 -7 -22 -24 -26 -32 -34 -47 0
-11 -30 -38 -51 -60 -66 -2 -3 -5 -7 -10 -22 -24 -26 -29 -32 -34 -37 -47 -50 -59 0
-66 -60 -51 -38 -30 -11 -59 -50 -37 -29 -10 -47 -34 -26 -7 -32 -24 -5 -22 -3 -2 0
-2 -3 -5 -8 -9 -10 -22 -24 -27 -28 -29 -32 -35 -36 -37 -48 -49 -50 -61 -62 -64 0
-10 -9 -8 -5 -3 -2 -64 -62 -50 -37 -29 -61 -49 -36 -28 -48 -35 -27 -32 -24 -22 0
-2 -29 -28 -27 -24 -22 -10 -9 -8 -5 -3 -64 -62 -50 -37 -61 -49 -36 -48 -35 -32 0
-22 -24 -27 -28 -29 -2 -32 -35 -36 -37 -3 -48 -49 -50 -5 -61 -62 -8 -64 -9 -10 0
-22 -3 -37 -36 -35 -32 -2 -29 -28 -27 -24 -10 -9 -8 -5 -64 -62 -50 -61 -49 -48 0
-32 -35 -36 -37 -3 -22 -48 -49 -50 -5 -24 -61 -62 -8 -27 -64 -9 -28 -10 -29 -2 0
-32 -24 -5 -50 -49 -48 -22 -3 -37 -36 -35 -2 -29 -28 -27 -10 -9 -8 -64 -62 -61 0
-48 -49 -50 -5 -24 -32 -61 -62 -8 -27 -35 -64 -9 -28 -36 -10 -29 -37 -2 -3 -22 0
-48 -35 -27 -8 -62 -61 -32 -24 -5 -50 -49 -22 -3 -37 -36 -2 -29 -28 -10 -9 -64 0
-61 -62 -8 -27 -35 -48 -64 -9 -28 -36 -49 -10 -29 -37 -50 -2 -3 -5 -22 -24 -32 0
-61 -49 -36 -28 -9 -64 -48 -35 -27 -8 -62 -32 -24 -5 -50 -22 -3 -37 -2 -29 -10 0
-64 -9 -28 -36 -49 -61 -10 -29 -37 -50 -62 -2 -3 -5 -8 -22 -24 -27 -32 -35 -48 0
-10 -29 -37 -50 -62 -64 -2 -3 -5 -8 -9 -22 -24 -27 -28 -32 -35 -36 -48 -49 -61 0
-64 -62 -50 -37 -29 -10 -61 -49 -36 -28 -9 -48 -35 -27 -8 -32 -24 -5 -22 -3 -2 0
-2 -3 -5 -8 -9 -11 -22 -24 -27 -28 -30 -32 -35 -36 -38 -48 -49 -51 -61 -63 -65 0
-11 -9 -8 -5 -3 -2 -65 -63 -51 -38 -30 -61 -49 -36 -28 -48 -35 -27 -32 -24 -22 0
-2 -30 -28 -27 -24 -22 -11 -9 -8 -5 -3 -65 -63 -51 -38 -61 -49 -36 -48 -35 -32 0
-22 -24 -27 -28 -30 -2 -32 -35 -36 -38 -3 -48 -49 -51 -5 -61 -63 -8 -65 -9 -11 0
-22 -3 -38 -36 -35 -32 -2 -30 -28 -27 -24 -11 -9 -8 -5 -65 -63 -51 -61 -49 -48 0
-32 -35 -36 -38 -3 -22 -48 -49 -51 -5 -24 -61 -63 -8 -27 -65 -9 -28 -11 -30 -2 0
-32 -24 -5 -51 -49 -48 -22 -3 -38 -36 -35 -2 -30 -28 -27 -11 -9 -8 -65 -63 -61 0
-48 -49 -51 -5 -24 -32 -61 -63 -8 -27 -35 -65 -9 -28 -36 -11 -30 -38 -2 -3 -22 0
-48 -35 -27 -8 -63 -61 -32 -24 -5 -51 -49 -22 -3 -38 -36 -2 -30 -28 -11 -9 -65 0
-61 -63 -8 -27 -35 -48 -65 -9 -28 -36 -49 -11 -30 -38 -51 -2 -3 -5 -22 -24 -32 0
-61 -49 -36 -28 -9 -65 -48 -35 -27 -8 -63 -32 -24 -5 -51 -22 -3 -38 -2 -30 -11 0
-65 -9 -28 -36 -49 -61 -11 -30 -38 -51 -63 -2 -3 -5 -8 -22 -24 -27 -32 -35 -48 0
-11 -30 -38 -51 -63 -65 -2 -3 -5 -8 -9 -22 -24 -27 -28 -32 -35 -36 -48 -49 -61 0
-65 -63 -51 -38 -30 -11 -61 -49 -36 -28 -9 -48 -35 -27 -8 -32 -24 -5 -22 -3 -2 0
-2 -3 -5 -8 -10 -11 -22 -24 -27 -29 -30 -32 -35 -37 -38 -48 -50 -51 -62 -63 -66 0
-11 -10 -8 -5 -3 -2 -66 -63 -51 -38 -30 -62 -50 -37 -29 -48 -35 -27 -32 -24 -22 0
-2 -30 -29 -27 -24 -22 -11 -10 -8 -5 -3 -66 -63 -51 -38 -62 -50 -37 -48 -35 -32 0
-22 -24 -27 -29 -30 -2 -32 -35 -37 -38 -3 -48 -50 -51 -5 -62 -63 -8 -66 -10 -11 0
-22 -3 -38 -37 -35 -32 -2 -30 -29 -27 -24 -11 -10 -8 -5 -66 -63 -51 -62 -50 -48 0
-32 -35 -37 -38 -3 -22 -48 -50 -51 -5 -24 -62 -63 -8 -27 -66 -10 -29 -11 -30 -2 0
-32 -24 -5 -51 -50 -48 -22 -3 -38 -37 -35 -2 -30 -29 -27 -11 -10 -8 -66 -63 -62 0
-48 -50 -51 -5 -24 -32 -62 -63 -8 -27 -35 -66 -10 -29 -37 -11 -30 -38 -2 -3 -22 0
-48 -35 -27 -8 -63 -62 -32 -24 -5 -51 -50 -22 -3 -38 -37 -2 -30 -29 -11 -10 -66 0
-62 -63 -8 -27 -35 -48 -66 -10 -29 -37 -50 -11 -30 -38 -51 -2 -3 -5 -22 -24 -32 0
-62 -50 -37 -29 -10 -66 -48 -35 -27 -8 -63 -32 -24 -5 -51 -22 -3 -38 -2 -30 -11 0
-66 -10 -29 -37 -50 -62 -11 -30 -38 -51 -63 -2 -3 -5 -8 -22 -24 -27 -32 -35 -48 0
-11 -30 -38 -51 -63 -66 -2 -3 -5 -8 -10 -22 -24 -27 -29 -32 -35 -37 -48 -50 -62 0
-66 -63 -51 -38 -30 -11 -62 -50 -37 -29 -10 -48 -35 -27 -8 -32 -24 -5 -22 -3 -2 0
-2 -3 -5 -9 -10 -11 -22 -24 -28 -29 -30 -32 -36 -37 -38 -49 -50 -51 -64 -65 -66 0
-11 -10 -9 -5 -3 -2 -66 -65 -51 -38 -30 -64 -50 -37 -29 -49 -36 -28 -32 -24 -22 0
-2 -30 -29 -28 -24 -22 -11 -10 -9 -5 -3 -66 -65 -51 -38 -64 -50 -37 -49 -36 -32 0
-22 -24 -28 -29 -30 -2 -32 -36 -37 -38 -3 -49 -50 -51 -5 -64 -65 -9 -66 -10 -11 0
-22 -3 -38 -37 -36 -32 -2 -30 -29 -28 -24 -11 -10 -9 -5 -66 -65 -51 -64 -50 -49 0
-32 -36 -37 -38 -3 -22 -49 -50 -51 -5 -24 -64 -65 -9 -28 -66 -10 -29 -11 -30 -2 0
-32 -24 -5 -51 -50 -49 -22 -3 -38 -37 -36 -2 -30 -29 -28 -11 -10 -9 -66 -65 -64 0
-49 -50 -51 -5 -24 -32 -64 -65 -9 -28 -36 -66 -10 -29 -37 -11 -30 -38 -2 -3 -22 0
-49 -36 -28 -9 -65 -64 -32 -24 -5 -51 -50 -22 -3 -38 -37 -2 -30 -29 -11 -10 -66 0
-64 -65 -9 -28 -36 -49 -66 -10 -29 -37 -50 -11 -30 -38 -51 -2 -3 -5 -22 -24 -32 0
-64 -50 -37 -29 -10 -66 -49 -36 -28 -9 -65 -32 -24 -5 -51 -22 -3 -38 -2 -30 -11 0
-66 -10 -29 -37 -50 -64 -11 -30 -38 -51 -65 -2 -3 -5 -9 -22 -24 -28 -32 -36 -49 0
-11 -30 -38 -51 -65 -66 -2 -3 -5 -9 -10 -22 -24 -28 -29 -32 -36 -37 -49 -50 -64 0
-66 -65 -51 -38 -30 -11 -64 -50 -37 -29 -10 -49 -36 -28 -9 -32 -24 -5 -22 -3 -2 0
-2 -3 -6 -7 -8 -9 -22 -25 -26 -27 -28 -33 -34 -35 -36 -52 -53 -54 -57 -58 -61 0
-9 -8 -7 -6 -3 -2 -61 -58 -54 -36 -28 -57 -53 -35 -27 -52 -34 -26 -33 -25 -22 0
-2 -28 -27 -26 -25 -22 -9 -8 -7 -6 -3 -61 -58 -54 -36 -57 -53 -35 -52 -34 -33 0
-22 -25 -26 -27 -28 -2 -33 -34 -35 -36 -3 -52 -53 -54 -6 -57 -58 -7 -61 -8 -9 0
-22 -3 -36 -35 -34 -33 -2 -28 -27 -26 -25 -9 -8 -7 -6 -61 -58 -54 -57 -53 -52 0
-33 -34 -35 -36 -3 -22 -52 -53 -54 -6 -25 -57 -58 -7 -26 -61 -8 -27 -9 -28 -2 0
-33 -25 -6 -54 -53 -52 -22 -3 -36 -35 -34 -2 -28 -27 -26 -9 -8 -7 -61 -58 -57 0
-52 -53 -54 -6 -25 -33 -57 -58 -7 -26 -34 -61 -8 -27 -35 -9 -28 -36 -2 -3 -22 0
-52 -34 -26 -7 -58 -57 -33 -25 -6 -54 -53 -22 -3 -36 -35 -2 -28 -27 -9 -8 -61 0
-57 -58 -7 -26 -34 -52 -61 -8 -27 -35 -53 -9 -28 -36 -54 -2 -3 -6 -22 -25 -33 0
-57 -53 -35 -27 -8 -61 -52 -34 -26 -7 -58 -33 -25 -6 -54 -22 -3 -36 -2 -28 -9 0
-61 -8 -27 -35 -53 -57 -9 -28 -36 -54 -58 -2 -3 -6 -7 -22 -25 -26 -33 -34 -52 0
-9 -28 -36 -54 -58 -61 -2 -3 -6 -7 -8 -22 -25 -26 -27 -33 -34 -35 -52 -53 -57 0
-61 -58 -54 -36 -28 -9 -57 -53 -35 -27 -8 -52 -34 -26 -7 -33 -25 -6 -22 -3 -2 0
-2 -3 -6 -7 -8 -10 -22 -25 -26 -27 -29 -33 -34 -35 -37 -52 -53 -55 -57 -59 -62 0
-10 -8 -7 -6 -3 -2 -62 -59 -55 -37 -29 -57 -53 -35 -27 -52 -34 -26 -33 -25 -22 0
-2 -29 -27 -26 -25 -22 -10 -8 -7 -6 -3 -62 -59 -55 -37 -57 -53 -35 -52 -34 -33 0
-22 -25 -26 -27 -29 -2 -33 -34 -35 -37 -3 -52 -53 -55 -6 -57 -59 -7 -62 -8 -10 0
-22 -3 -37 -35 -34 -33 -2 -29 -27 -26 -25 -10 -8 -7 -6 -62 -59 -55 -57 -53 -52 0
-33 -34 -35 -37 -3 -22 -52 -53 -55 -6 -25 -57 -59 -7 -26 -62 -8 -27 -10 -29 -2 0
-33 -25 -6 -55 -53 -52 -22 -3 -37 -35 -34 -2 -29 -27 -26 -10 -8 -7 -62 -59 -57 0
-52 -53 -55 -6 -25 -33 -57 -59 -7 -26 -34 -62 -8 -27 -35 -10 -29 -37 -2 -3 -22 0
-52 -34 -26 -7 -59 -57 -33 -25 -6 -55 -53 -22 -3 -37 -35 -2 -29 -27 -10 -8 -62 0
-57 -59 -7 -26 -34 -52 -62 -8 -27 -35 -53 -10 -29 -37 -55 -2 -3 -6 -22 -25 -33 0
-57 -53 -35 -27 -8 -62 -52 -34 -26 -7 -59 -33 -25 -6 -55 -22 -3 -37 -2 -29 -10 0
-62 -8 -27 -35 -53 -57 -10 -29 -37 -55 -59 -2 -3 -6 -7 -22 -25 -26 -33 -34 -52 0
-10 -29 -37 -55 -59 -62 -2 -3 -6 -7 -8 -22 -25 -26 -27 -33 -34 -35 -52 -53 -57 0
-62 -59 -55 -37 -29 -10 -57 -53 -35 -27 -8 -52 -34 -26 -7 -33 -25 -6 -22 -3 -2 0
-2 -3 -6 -7 -8 -11 -22 -25 -26 -27 -30 -33 -34 -35 -38 -52 -53 -56 -57 -60 -63 0
-11 -8 -7 -6 -3 -2 -63 -60 -56 -38 -30 -57 -53 -35 -27 -52 -34 -26 -33 -25 -22 0
-2 -30 -27 -26 -25 -22 -11 -8 -7 -6 -3 -63 -60 -56 -38 -57 -53 -35 -52 -34 -33 0
-22 -25 -26 -27 -30 -2 -33 -34 -35 -38 -3 -52 -53 -56 -6 -57 -60 -7 -63 -8 -11 0
-22 -3 -38 -35 -34 -33 -2 -30 -27 -26 -25 -11 -8 -7 -6 -63 -60 -56 -57 -53 -52 0
-33 -34 -35 -38 -3 -22 -52 -53 -56 -6 -25 -57 -60 -7 -26 -63 -8 -27 -11 -30 -2 0
-33 -25 -6 -56 -53 -52 -22 -3 -38 -35 -34 -2 -30 -27 -26 -11 -8 -7 -63 -60 -57 0
-52 -53 -56 -6 -25 -33 -57 -60 -7 -26 -34 -63 -8 -27 -35 -11 -30 -38 -2 -3 -22 0
-52 -34 -26 -7 -60 -57 -33 -25 -6 -56 -53 -22 -3 -38 -35 -2 -30 -27 -11 -8 -63 0
-57 -60 -7 -26 -34 -52 -63 -8 -27 -35 -53 -11 -30 -38 -56 -2 -3 -6 -22 -25 -33 0
-57 -53 -35 -27 -8 -63 -52 -34 -26 -7 -60 -33 -25 -6 -56 -22 -3 -38 -2 -30 -11 0
-63 -8 -27 -35 -53 -57 -11 -30 -38 -56 -60 -2 -3 -6 -7 -22 -25 -26 -33 -34 -52 0
-11 -30 -38 -56 -60 -63 -2 -3 -6 -7 -8 -22 -25 -26 -27 -33 -34 -35 -52 -53 -57 0
-63 -60 -56 -38 -30 -11 -57 -53 -35 -27 -8 -52 -34 -26 -7 -33 -25 -6 -22 -3 -2 0
-2 -3 -6 -7 -9 -10 -22 -25 -26 -28 -29 -33 -34 -36 -37 -52 -54 -55 -58 -59 -64 0
-10 -9 -7 -6 -3 -2 -64 -59 -55 -37 -29 -58 -54 -36 -28 -52 -34 -26 -33 -25 -22 0
-2 -29 -28 -26 -25 -22 -10 -9 -7 -6 -3 -64 -59 -55 -37 -58 -54 -36 -52 -34 -33 0
-22 -25 -26 -28 -29 -2 -33 -34 -36 -37 -3 -52 -54 -55 -6 -58 -59 -7 -64 -9 -10 0
-22 -3 -37 -36 -34 -33 -2 -29 -28 -26 -25 -10 -9 -7 -6 -64 -59 -55 -58 -54 -52 0
-33 -34 -36 -37 -3 -22 -52 -54 -55 -6 -25 -58 -59 -7 -26 -64 -9 -28 -10 -29 -2 0
-33 -25 -6 -55 -54 -52 -22 -3 -37 -36 -34 -2 -29 -28 -26 -10 -9 -7 -64 -59 -58 0
-52 -54 -55 -6 -25 -33 -58 -59 -7 -26 -34 -64 -9 -28 -36 -10 -29 -37 -2 -3 -22 0
-52 -34 -26 -7 -59 -58 -33 -25 -6 -55 -54 -22 -3 -37 -36 -2 -29 -28 -10 -9 -64 0
-58 -59 -7 -26 -34 -52 -64 -9 -28 -36 -54 -10 -29 -37 -55 -2 -3 -6 -22 -25 -33 0
-58 -54 -36 -28 -9 -64 -52 -34 -26 -7 -59 -33 -25 -6 -55 -22 -3 -37 -2 -29 -10 0
-64 -9 -28 -36 -54 -58 -10 -29 -37 -55 -59 -2 -3 -6 -7 -22 -25 -26 -33 -34 -52 0
-10 -29 -37 -55 -59 -64 -2 -3 -6 -7 -9 -22 -25 -26 -28 -33 -34 -36 -52 -54 -58 0
-64 -59 -55 -37 -29 -10 -58 -54 -36 -28 -9 -52 -34 -26 -7 -33 -25 -6 -22 -3 -2 0
-2 -3 -6 -7 -9 -11 -22 -25 -26 -28 -30 -33 -34 -36 -38 -52 -54 -56 -58 -60 -65 0
-11 -9 -7 -6 -3 -2 -65 -60 -56 -38 -30 -58 -54 -36 -28 -52 -34 -26 -33 -25 -22 0
-2 -30 -28 -26 -25 -22 -11 -9 -7 -6 -3 -65 -60 -56 -38 -58 -54 -36 -52 -34 -33 0
-22 -25 -26 -28 -30 -2 -33 -34 -36 -38 -3 -52 -54 -56 -6 -58 -60 -7 -65 -9 -11 0
-22 -3 -38 -36 -34 -33 -2 -30 -28 -26 -25 -11 -9 -7 -6 -65 -60 -56 -58 -54 -52 0
-33 -34 -36 -38 -3 -22 -52 -54 -56 -6 -25 -58 -60 -7 -26 -65 -9 -28 -11 -30 -2 0
-33 -25 -6 -56 -54 -52 -22 -3 -38 -36 -34 -2 -30 -28 -26 -11 -9 -7 -65 -60 -58 0
-52 -54 -56 -6 -25 -33 -58 -60 -7 -26 -34 -65 -9 -28 -36 -11 -30 -38 -2 -3 -22 0
-52 -34 -26 -7 -60 -58 -33 -25 -6 -56 -54 -22 -3 -38 -36 -2 -30 -28 -11 -9 -65 0
-58 -60 -7 -26 -34 -52 -65 -9 -28 -36 -54 -11 -30 -38 -56 -2 -3 -6 -22 -25 -33 0
-58 -54 -36 -28 -9 -65 -52 -34 -26 -7 -60 -33 -25 -6 -56 -22 -3 -38 -2 -30 -11 0
-65 -9 -28 -36 -54 -58 -11 -30 -38 -56 -60 -2 -3 -6 -7 -22 -25 -26 -33 -34 -52 0
-11 -30 -38 -56 -60 -65 -2 -3 -6 -7 -9 -22 -25 -26 -28 -33 -34 -36 -52 -54 -58 0
-65 -60 -56 -38 -30 -11 -58 -54 -36 -28 -9 -52 -34 -26 -7 -33 -25 -6 -22 -3 -2 0
-2 -3 -6 -7 -10 -11 -22 -25 -26 -29 -30 -33 -34 -37 -38 -52 -55 -56 -59 -60 -66 0
-11 -10 -7 -6 -3 -2 -66 -60 -56 -38 -30 -59 -55 -37 -29 -52 -34 -26 -33 -25 -22 0
-2 -30 -29 -26 -25 -22 -11 -10 -7 -6 -3 -66 -60 -56 -38 -59 -55 -37 -52 -34 -33 0
-22 -25 -26 -29 -30 -2 -33 -34 -37 -38 -3 -52 -55 -56 -6 -59 -60 -7 -66 -10 -11 0
-22 -3 -38 -37 -34 -33 -2 -30 -29 -26 -25 -11 -10 -7 -6 -66 -60 -56 -59 -55 -52 0
-33 -34 -37 -38 -3 -22 -52 -55 -56 -6 -25 -59 -60 -7 -26 -66 -10 -29 -11 -30 -2 0
-33 -25 -6 -56 -55 -52 -22 -3 -38 -37 -34 -2 -30 -29 -26 -11 -10 -7 -66 -60 -59 0
-52 -55 -56 -6 -25 -33 -59 -60 -7 -26 -34 -66 -10 -29 -37 -11 -30 -38 -2 -3 -22 0
-52 -34 -26 -7 -60 -59 -33 -25 -6 -56 -55 -22 -3 -38 -37 -2 -30 -29 -11 -10 -66 0
-59 -60 -7 -26 -34 -52 -66 -10 -29 -37 -55 -11 -30 -38 -56 -2 -3 -6 -22 -25 -33 0
-59 -55 -37 -29 -10 -66 -52 -34 -26 -7 -60 -33 -25 -6 -56 -22 -3 -38 -2 -30 -11 0
-66 -10 -29 -37 -55 -59 -11 -30 -38 -56 -60 -2 -3 -6 -7 -22 -25 -26 -33 -34 -52 0
-11 -30 -38 -56 -60 -66 -2 -3 -6 -7 -10 -22 -25 -26 -29 -33 -34 -37 -52 -55 -59 0
-66 -60 -56 -38 -30 -11 -59 -55 -37 -29 -10 -52 -34 -26 -7 -33 -25 -6 -22 -3 -2 0
-2 -3 -6 -8 -9 -10 -22 -25 -27 -28 -29 -33 -35 -36 -37 -53 -54 -55 -61 -62 -64 0
-10 -9 -8 -6 -3 -2 -64 -62 -55 -37 -29 -61 -54 -36 -28 -53 -35 -27 -33 -25 -22 0
-2 -29 -28 -27 -25 -22 -10 -9 -8 -6 -3 -64 -62 -55 -37 -61 -54 -36 -53 -35 -33 0
-22 -25 -27 -28 -29 -2 -33 -35 -36 -37 -3 -53 -54 -55 -6 -61 -62 -8 -64 -9 -10 0
-22 -3 -37 -36 -35 -33 -2 -29 -28 -27 -25 -10 -9 -8 -6 -64 -62 -55 -61 -54 -53 0
-33 -35 -36 -37 -3 -22 -53 -54 -55 -6 -25 -61 -62 -8 -27 -64 -9 -28 -10 -29 -2 0
-33 -25 -6 -55 -54 -53 -22 -3 -37 -36 -35 -2 -29 -28 -27 -10 -9 -8 -64 -62 -61 0
-53 -54 -55 -6 -25 -33 -61 -62 -8 -27 -35 -64 -9 -28 -36 -10 -29 -37 -2 -3 -22 0
-53 -35 -27 -8 -62 -61 -33 -25 -6 -55 -54 -22 -3 -37 -36 -2 -29 -28 -10 -9 -64 0
-61 -62 -8 -27 -35 -53 -64 -9 -28 -36 -54 -10 -29 -37 -55 -2 -3 -6 -22 -25 -33 0
-61 -54 -36 -28 -9 -64 -53 -35 -27 -8 -62 -33 -25 -6 -55 -22 -3 -37 -2 -29 -10 0
-64 -9 -28 -36 -54 -61 -10 -29 -37 -55 -62 -2 -3 -6 -8 -22 -25 -27 -33 -35 -53 0
-10 -29 -37 -55 -62 -64 -2 -3 -6 -8 -9 -22 -25 -27 -28 -33 -35 -36 -53 -54 -61 0
-64 -62 -55 -37 -29 -10 -61 -54 -36 -28 -9 -53 -35 -27 -8 -33 -25 -6 -22 -3 -2 0
-2 -3 -6 -8 -9 -11 -22 -25 -27 -28 -30 -33 -35 -36 -38 -53 -54 -56 -61 -63 -65 0
-11 -9 -8 -6 -3 -2 -65 -63 -56 -38 -30 -61 -54 -36 -28 -53 -35 -27 -33 -25 -22 0
-2 -30 -28 -27 -25 -22 -11 -9 -8 -6 -3 -65 -63 -56 -38 -61 -54 -36 -53 -35 -33 0
-22 -25 -27 -28 -30 -2 -33 -35 -36 -38 -3 -53 -54 -56 -6 -61 -63 -8 -65 -9 -11 0
-22 -3 -38 -36 -35 -33 -2 -30 -28 -27 -25 -11 -9 -8 -6 -65 -63 -56 -61 -54 -53 0
-33 -35 -36 -38 -3 -22 -53 -54 -56 -6 -25 -61 -63 -8 -27 -65 -9 -28 -11 -30 -2 0
-33 -25 -6 -56 -54 -53 -22 -3 -38 -36 -35 -2 -30 -28 -27 -11 -9 -8 -65 -63 -61 0
-53 -54 -56 -6 -25 -33 -61 -63 -8 -27 -35 -65 -9 -28 -36 -11 -30 -38 -2 -3 -22 0
-53 -35 -27 -8 -63 -61 -33 -25 -6 -56 -54 -22 -3 -38 -36 -2 -30 -28 -11 -9 -65 0
-61 -63 -8 -27 -35 -53 -65 -9 -28 -36 -54 -11 -30 -38 -56 -2 -3 -6 -22 -25 -33 0
-61 -54 -36 -28 -9 -65 -53 -35 -27 -8 -63 -33 -25 -6 -56 -22 -3 -38 -2 -30 -11 0
-65 -9 -28 -36 -54 -61 -11 -30 -38 -56 -63 -2 -3 -6 -8 -22 -25 -27 -33 -35 -53 0
-11 -30 -38 -56 -63 -65 -2 -3 -6 -8 -9 -22 -25 -27 -28 -33 -35 -36 -53 -54 -61 0
-65 -63 -56 -38 -30 -11 -61 -54 -36 -28 -9 -53 -35 -27 -8 -33 -25 -6 -22 -3 -2 0
-2 -3 -6 -8 -10 -11 -22 -25 -27 -29 -30 -33 -35 -37 -38 -53 -55 -56 -62 -63 -66 0
-11 -10 -8 -6 -3 -2 -66 -63 -56 -38 -30 -62 -55 -37 -29 -53 -35 -27 -33 -25 -22 0
-2 -30 -29 -27 -25 -22 -11 -10 -8 -6 -3 -66 -63 -56 -38 -62 -55 -37 -53 -35 -33 0
-22 -25 -27 -29 -30 -2 -33 -35 -37 -38 -3 -53 -55 -56 -6 -62 -63 -8 -66 -10 -11 0
-22 -3 -38 -37 -35 -33 -2 -30 -29 -27 -25 -11 -10 -8 -6 -66 -63 -56 -62 -55 -53 0
-33 -35 -37 -38 -3 -22 -53 -55 -56 -6 -25 -62 -63 -8 -27 -66 -10 -29 -11 -30 -2 0
-33 -25 -6 -56 -55 -53 -22 -3 -38 -37 -35 -2 -30 -29 -27 -11 -10 -8 -66 -63 -62 0
-53 -55 -56 -6 -25 -33 -62 -63 -8 -27 -35 -66 -10 -29 -37 -11 -30 -38 -2 -3 -22 0
-53 -35 -27 -8 -63 -62 -33 -25 -6 -56 -55 -22 -3 -38 -37 -2 -30 -29 -11 -10 -66 0
-62 -63 -8 -27 -35 -53 -66 -10 -29 -37 -55 -11 -30 -38 -56 -2 -3 -6 -22 -25 -33 0
-62 -55 -37 -29 -10 -66 -53 -35 -27 -8 -63 -33 -25 -6 -56 -22 -3 -38 -2 -30 -11 0
-66 -10 -29 -37 -55 -62 -11 -30 -38 -56 -63 -2 -3 -6 -8 -22 -25 -27 -33 -35 -53 0
-11 -30 -38 -56 -63 -66 -2 -3 -6 -8 -10 -22 -25 -27 -29 -33 -35 -37 -53 -55 -62 0
-66 -63 -56 -38 -30 -11 -62 -55 -37 -29 -10 -53 -35 -27 -8 -33 -25 -6 -22 -3 -2 0
-2 -3 -6 -9 -10 -11 -22 -25 -28 -29 -30 -33 -36 -37 -38 -54 -55 -56 -64 -65 -66 0
-11 -10 -9 -6 -3 -2 -66 -65 -56 -38 -30 -64 -55 -37 -29 -54 -36 -28 -33 -25 -22 0
-2 -30 -29 -28 -25 -22 -11 -10 -9 -6 -3 -66 -65 -56 -38 -64 -55 -37 -54 -36 -33 0
-22 -25 -28 -29 -30 -2 -33 -36 -37 -38 -3 -54 -55 -56 -6 -64 -65 -9 -66 -10 -11 0
-22 -3 -38 -37 -36 -33 -2 -30 -29 -28 -25 -11 -10 -9 -6 -66 -65 -56 -64 -55 -54 0
-33 -36 -37 -38 -3 -22 -54 -55 -56 -6 -25 -64 -65 -9 -28 -66 -10 -29 -11 -30 -2 0
-33 -25 -6 -56 -55 -54 -22 -3 -38 -37 -36 -2 -30 -29 -28 -11 -10 -9 -66 -65 -64 0
-54 -55 -56 -6 -25 -33 -64 -65 -9 -28 -36 -66 -10 -29 -37 -11 -30 -38 -2 -3 -22 0
-54 -36 -28 -9 -65 -64 -33 -25 -6 -56 -55 -22 -3 -38 -37 -2 -30 -29 -11 -10 -66 0
-64 -65 -9 -28 -36 -54 -66 -10 -29 -37 -55 -11 -30 -38 -56 -2 -3 -6 -22 -25 -33 0
-64 -55 -37 -29 -10 -66 -54 -36 -28 -9 -65 -33 -25 -6 -56 -22 -3 -38 -2 -30 -11 0
-66 -10 -29 -37 -55 -64 -11 -30 -38 -56 -65 -2 -3 -6 -9 -22 -25 -28 -33 -36 -54 0
-11 -30 -38 -56 -65 -66 -2 -3 -6 -9 -10 -22 -25 -28 -29 -33 -36 -37 -54 -55 -64 0
-66 -65 -56 -38 -30 -11 -64 -55 -37 -29 -10 -54 -36 -28 -9 -33 -25 -6 -22 -3 -2 0
-2 -3 -7 -8 -9 -10 -22 -26 -27 -28 -29 -34 -35 -36 -37 -57 -58 -59 -61 -62 -64 0
-10 -9 -8 -7 -3 -2 -64 -62 -59 -37 -29 -61 -58 -36 -28 -57 -35 -27 -34 -26 -22 0
-2 -29 -28 -27 -26 -22 -10 -9 -8 -7 -3 -64 -62 -59 -37 -61 -58 -36 -57 -35 -34 0
-22 -26 -27 -28 -29 -2 -34 -35 -36 -37 -3 -57 -58 -59 -7 -61 -62 -8 -64 -9 -10 0
-22 -3 -37 -36 -35 -34 -2 -29 -28 -27 -26 -10 -9 -8 -7 -64 -62 -59 -61 -58 -57 0
-34 -35 -36 -37 -3 -22 -57 -58 -59 -7 -26 -61 -62 -8 -27 -64 -9 -28 -10 -29 -2 0
-34 -26 -7 -59 -58 -57 -22 -3 -37 -36 -35 -2 -29 -28 -27 -10 -9 -8 -64 -62 -61 0
-57 -58 -59 -7 -26 -34 -61 -62 -8 -27 -35 -64 -9 -28 -36 -10 -29 -37 -2 -3 -22 0
-57 -35 -27 -8 -62 -61 -34 -26 -7 -59 -58 -22 -3 -37 -36 -2 -29 -28 -10 -9 -64 0
-61 -62 -8 -27 -35 -57 -64 -9 -28 -36 -58 -10 -29 -37 -59 -2 -3 -7 -22 -26 -34 0
-61 -58 -36 -28 -9 -64 -57 -35 -27 -8 -62 -34 -26 -7 -59 -22 -3 -37 -2 -29 -10 0
-64 -9 -28 -36 -58 -61 -10 -29 -37 -59 -62 -2 -3 -7 -8 -22 -26 -27 -34 -35 -57 0
-10 -29 -37 -59 -62 -64 -2 -3 -7 -8 -9 -22 -26 -27 -28 -34 -35 -36 -57 -58 -61 0
-64 -62 -59 -37 -29 -10 -61 -58 -36 -28 -9 -57 -35 -27 -8 -34 -26 -7 -22 -3 -2 0
-2 -3 -7 -8 -9 -11 -22 -26 -27 -28 -30 -34 -35 -36 -38 -57 -58 -60 -61 -63 -65 0
-11 -9 -8 -7 -3 -2 -65 -63 -60 -38 -30 -61 -58 -36 -28 -57 -35 -27 -34 -26 -22 0
-2 -30 -28 -27 -26 -22 -11 -9 -8 -7 -3 -65 -63 -60 -38 -61 -58 -36 -57 -35 -34 0
-22 -26 -27 -28 -30 -2 -34 -35 -36 -38 -3 -57 -58 -60 -7 -61 -63 -8 -65 -9 -11 0
-22 -3 -38 -36 -35 -34 -2 -30 -28 -27 -26 -11 -9 -8 -7 -65 -63 -60 -61 -58 -57 0
-34 -35 -36 -38 -3 -22 -57 -58 -60 -7 -26 -61 -63 -8 -27 -65 -9 -28 -11 -30 -2 0
-34 -26 -7 -60 -58 -57 -22 -3 -38 -36 -35 -2 -30 -28 -27 -11 -9 -8 -65 -63 -61 0
-57 -58 -60 -7 -26 -34 -61 -63 -8 -27 -35 -65 -9 -28 -36 -11 -30 -38 -2 -3 -22 0
-57 -35 -27 -8 -63 -61 -34 -26 -7 -60 -58 -22 -3 -38 -36 -2 -30 -28 -11 -9 -65 0
-61 -63 -8 -27 -35 -57 -65 -9 -28 -36 -58 -11 -30 -38 -60 -2 -3 -7 -22 -26 -34 0
-61 -58 -36 -28 -9 -65 -57 -35 -27 -8 -63 -34 -26 -7 -60 -22 -3 -38 -2 -30 -11 0
-65 -9 -28 -36 -58 -61 -11 -30 -38 -60 -63 -2 -3 -7 -8 -22 -26 -27 -34 -35 -57 0
-11 -30 -38 -60 -63 -65 -2 -3 -7 -8 -9 -22 -26 -27 -28 -34 -35 -36 -57 -58 -61 0
-65 -63 -60 -38 -30 -11 -61 -58 -36 -28 -9 -57 -35 -27 -8 -34 -26 -7 -22 -3 -2 0
-2 -3 -7 -8 -10 -11 -22 -26 -27 -29 -30 -34 -35 -37 -38 -57 -59 -60 -62 -63 -66 0
-11 -10 -8 -7 -3 -2 -66 -63 -60 -38 -30 -62 -59 -37 -29 -57 -35 -27 -34 -26 -22 0
-2 -30 -29 -27 -26 -22 -11 -10 -8 -7 -3 -66 -63 -60 -38 -62 -59 -37 -57 -35 -34 0
-22 -26 -27 -29 -30 -2 -34 -35 -37 -38 -3 -57 -59 -60 -7 -62 -63 -8 -66 -10 -11 0
-22 -3 -38 -37 -35 -34 -2 -30 -29 -27 -26 -11 -10 -8 -7 -66 -63 -60 -62 -59 -57 0
-34 -35 -37 -38 -3 -22 -57 -59 -60 -7 -26 -62 -63 -8 -27 -66 -10 -29 -11 -30 -2 0
-34 -26 -7 -60 -59 -57 -22 -3 -38 -37 -35 -2 -30 -29 -27 -11 -10 -8 -66 -63 -62 0
-57 -59 -60 -7 -26 -34 -62 -63 -8 -27 -35 -66 -10 -29 -37 -11 -30 -38 -2 -3 -22 0
-57 -35 -27 -8 -63 -62 -34 -26 -7 -60 -59 -22 -3 -38 -37 -2 -30 -29 -11 -10 -66 0
-62 -63 -8 -27 -35 -57 -66 -10 -29 -37 -59 -11 -30 -38 -60 -2 -3 -7 -22 -26 -34 0
-62 -59 -37 -29 -10 -66 -57 -35 -27 -8 -63 -34 -26 -7 -60 -22 -3 -38 -2 -30 -11 0
-66 -10 -29 -37 -59 -62 -11 -30 -38 -60 -63 -2 -3 -7 -8 -22 -26 -27 -34 -35 -57 0
-11 -30 -38 -60 -63 -66 -2 -3 -7 -8 -10 -22 -26 -27 -29 -34 -35 -37 -57 -59 -62 0
-66 -63 -60 -38 -30 -11 -62 -59 -37 -29 -10 -57 -35 -27 -8 -34 -26 -7 -22 -3 -2 0
-2 -3 -7 -9 -10 -11 -22 -26 -28 -29 -30 -34 -36 -37 -38 -58 -59 -60 -64 -65 -66 0
-11 -10 -9 -7 -3 -2 -66 -65 -60 -38 -30 -64 -59 -37 -29 -58 -36 -28 -34 -26 -22 0
-2 -30 -29 -28 -26 -22 -11 -10 -9 -7 -3 -66 -65 -60 -38 -64 -59 -37 -58 -36 -34 0
-22 -26 -28 -29 -30 -2 -34 -36 -37 -38 -3 -58 -59 -60 -7 -64 -65 -9 -66 -10 -11 0
-22 -3 -38 -37 -36 -34 -2 -30 -29 -28 -26 -11 -10 -9 -7 -66 -65 -60 -64 -59 -58 0
-34 -36 -37 -38 -3 -22 -58 -59 -60 -7 -26 -64 -65 -9 -28 -66 -10 -29 -11 -30 -2 0
-34 -26 -7 -60 -59 -58 -22 -3 -38 -37 -36 -2 -30 -29 -28 -11 -10 -9 -66 -65 -64 0
-58 -59 -60 -7 -26 -34 -64 -65 -9 -28 -36 -66 -10 -29 -37 -11 -30 -38 -2 -3 -22 0
-58 -36 -28 -9 -65 -64 -34 -26 -7 -60 -59 -22 -3 -38 -37 -2 -30 -29 -11 -10 -66 0
-64 -65 -9 -28 -36 -58 -66 -10 -29 -37 -59 -11 -30 -38 -60 -2 -3 -7 -22 -26 -34 0
-64 -59 -37 -29 -10 -66 -58 -36 -28 -9 -65 -34 -26 -7 -60 -22 -3 -38 -2 -30 -11 0
-66 -10 -29 -37 -59 -64 -11 -30 -38 -60 -65 -2 -3 -7 -9 -22 -26 -28 -34 -36 -58 0
-11 -30 -38 -60 -65 -66 -2 -3 -7 -9 -10 -22 -26 -28 -29 -34 -36 -37 -58 -59 -64 0
-66 -65 -60 -38 -30 -11 -64 -59 -37 -29 -10 -58 -36 -28 -9 -34 -26 -7 -22 -3 -2 0
-2 -3 -8 -9 -10 -11 -22 -27 -28 -29 -30 -35 -36 -37 -38 -61 -62 -63 -64 -65 -66 0
-11 -10 -9 -8 -3 -2 -66 -65 -63 -38 -30 -64 -62 -37 -29 -61 -36 -28 -35 -27 -22 0
-2 -30 -29 -28 -27 -22 -11 -10 -9 -8 -3 -66 -65 -63 -38 -64 -62 -37 -61 -36 -35 0
-22 -27 -28 -29 -30 -2 -35 -36 -37 -38 -3 -61 -62 -63 -8 -64 -65 -9 -66 -10 -11 0
-22 -3 -38 -37 -36 -35 -2 -30 -29 -28 -27 -11 -10 -9 -8 -66 -65 -63 -64 -62 -61 0
-35 -36 -37 -38 -3 -22 -61 -62 -63 -8 -27 -64 -65 -9 -28 -66 -10 -29 -11 -30 -2 0
-35 -27 -8 -63 -62 -61 -22 -3 -38 -37 -36 -2 -30 -29 -28 -11 -10 -9 -66 -65 -64 0
-61 -62 -63 -8 -27 -35 -64 -65 -9 -28 -36 -66 -10 -29 -37 -11 -30 -38 -2 -3 -22 0
-61 -36 -28 -9 -65 -64 -35 -27 -8 -63 -62 -22 -3 -38 -37 -2 -30 -29 -11 -10 -66 0
-64 -65 -9 -28 -36 -61 -66 -10 -29 -37 -62 -11 -30 -38 -63 -2 -3 -8 -22 -27 -35 0
-64 -62 -37 -29 -10 -66 -61 -36 -28 -9 -65 -35 -27 -8 -63 -22 -3 -38 -2 -30 -11 0
-66 -10 -29 -37 -62 -64 -11 -30 -38 -63 -65 -2 -3 -8 -9 -22 -27 -28 -35 -36 -61 0
-11 -30 -38 -63 -65 -66 -2 -3 -8 -9 -10 -22 -27 -28 -29 -35 -36 -37 -61 -62 -64 0
-66 -65 -63 -38 -30 -11 -64 -62 -37 -29 -10 -61 -36 -28 -9 -35 -27 -8 -22 -3 -2 0
-2 -4 -5 -6 -7 -8 -23 -24 -25 -26 -27 -39 -40 -41 -42 -46 -47 -48 -52 -53 -57 0
-8 -7 -6 -5 -4 -2 -57 -53 -48 -42 -27 -52 -47 -41 -26 -46 -40 -25 -39 -24 -23 0
-2 -27 -26 -25 -24 -23 -8 -7 -6 -5 -4 -57 -53 -48 -42 -52 -47 -41 -46 -40 -39 0
-23 -24 -25 -26 -27 -2 -39 -40 -41 -42 -4 -46 -47 -48 -5 -52 -53 -6 -57 -7 -8 0
-23 -4 -42 -41 -40 -39 -2 -27 -26 -25 -24 -8 -7 -6 -5 -57 -53 -48 -52 -47 -46 0
-39 -40 -41 -42 -4 -23 -46 -47 -48 -5 -24 -52 -53 -6 -25 -57 -7 -26 -8 -27 -2 0
-39 -24 -5 -48 -47 -46 -23 -4 -42 -41 -40 -2 -27 -26 -25 -8 -7 -6 -57 -53 -52 0
-46 -47 -48 -5 -24 -39 -52 -53 -6 -25 -40 -57 -7 -26 -41 -8 -27 -42 -2 -4 -23 0
-46 -40 -25 -6 -53 -52 -39 -24 -5 -48 -47 -23 -4 -42 -41 -2 -27 -26 -8 -7 -57 0
-52 -53 -6 -25 -40 -46 -57 -7 -26 -41 -47 -8 -27 -42 -48 -2 -4 -5 -23 -24 -39 0
-52 -47 -41 -26 -7 -57 -46 -40 -25 -6 -53 -39 -24 -5 -48 -23 -4 -42 -2 -27 -8 0
-57 -7 -26 -41 -47 -52 -8 -27 -42 -48 -53 -2 -4 -5 -6 -23 -24 -25 -39 -40 -46 0
-8 -27 -42 -48 -53 -57 -2 -4 -5 -6 -7 -23 -24 -25 -26 -39 -40 -41 -46 -47 -52 0
-57 -53 -48 -42 -27 -8 -52 -47 -41 -26 -7 -46 -40 -25 -6 -39 -24 -5 -23 -4 -2 0
-2 -4 -5 -6 -7 -9 -23 -24 -25 -26 -28 -39 -40 -41 -43 -46 -47 -49 -52 -54 -58 0
-9 -7 -6 -5 -4 -2 -58 -54 -49 -43 -28 -52 -47 -41 -26 -46 -40 -25 -39 -24 -23 0
-2 -28 -26 -25 -24 -23 -9 -7 -6 -5 -4 -58 -54 -49 -43 -52 -47 -41 -46 -40 -39 0
-23 -24 -25 -26 -28 -2 -39 -40 -41 -43 -4 -46 -47 -49 -5 -52 -54 -6 -58 -7 -9 0
-23 -4 -43 -41 -40 -39 -2 -28 -26 -25 -24 -9 -7 -6 -5 -58 -54 -49 -52 -47 -46 0
-39 -40 -41 -43 -4 -23 -46 -47 -49 -5 -24 -52 -54 -6 -25 -58 -7 -26 -9 -28 -2 0
-39 -24 -5 -49 -47 -46 -23 -4 -43 -41 -40 -2 -28 -26 -25 -9 -7 -6 -58 -54 -52 0
-46 -47 -49 -5 -24 -39 -52 -54 -6 -25 -40 -58 -7 -26 -41 -9 -28 -43 -2 -4 -23 0
-46 -40 -25 -6 -54 -52 -39 -24 -5 -49 -47 -23 -4 -43 -41 -2 -28 -26 -9 -7 -58 0
-52 -54 -6 -25 -40 -46 -58 -7 -26 -41 -47 -9 -28 -43 -49 -2 -4 -5 -23 -24 -39 0
-52 -47 -41 -26 -7 -58 -46 -40 -25 -6 -54 -39 -24 -5 -49 -23 -4 -43 -2 -28 -9 0
-58 -7 -26 -41 -47 -52 -9 -28 -43 -49 -54 -2 -4 -5 -6 -23 -24 -25 -39 -40 -46 0
-9 -28 -43 -49 -54 -58 -2 -4 -5 -6 -7 -23 -24 -25 -26 -39 -40 -41 -46 -47 -52 0
-58 -54 -49 -43 -28 -9 -52 -47 -41 -26 -7 -46 -40 -25 -6 -39 -24 -5 -23 -4 -2 0
-2 -4 -5 -6 -7 -10 -23 -24 -25 -26 -29 -39 -40 -41 -44 -46 -47 -50 -52 -55 -59 0
-10 -7 -6 -5 -4 -2 -59 -55 -50 -44 -29 -52 -47 -41 -26 -46 -40 -25 -39 -24 -23 0
-2 -29 -26 -25 -24 -23 -10 -7 -6 -5 -4 -59 -55 -50 -44 -52 -47 -41 -46 -40 -39 0
-23 -24 -25 -26 -29 -2 -39 -40 -41 -44 -4 -46 -47 -50 -5 -52 -55 -6 -59 -7 -10 0
-23 -4 -44 -41 -40 -39 -2 -29 -26 -25 -24 -10 -7 -6 -5 -59 -55 -50 -52 -47 -46 0
-39 -40 -41 -44 -4 -23 -46 -47 -50 -5 -24 -52 -55 -6 -25 -59 -7 -26 -10 -29 -2 0
-39 -24 -5 -50 -47 -46 -23 -4 -44 -41 -40 -2 -29 -26 -25 -10 -7 -6 -59 -55 -52 0
-46 -47 -50 -5 -24 -39 -52 -55 -6 -25 -40 -59 -7 -26 -41 -10 -29 -44 -2 -4 -23 0
-46 -40 -25 -6 -55 -52 -39 -24 -5 -50 -47 -23 -4 -44 -41 -2 -29 -26 -10 -7 -59 0
-52 -55 -6 -25 -40 -46 -59 -7 -26 -41 -47 -10 -29 -44 -50 -2 -4 -5 -23 -24 -39 0
-52 -47 -41 -26 -7 -59 -46 -40 -25 -6 -55 -39 -24 -5 -50 -23 -4 -44 -2 -29 -10 0
-59 -7 -26 -41 -47 -52 -10 -29 -44 -50 -55 -2 -4 -5 -6 -23 -24 -25 -39 -40 -46 0
-10 -29 -44 -50 -55 -59 -2 -4 -5 -6 -7 -23 -24 -25 -26 -39 -40 -41 -46 -47 -52 0
-59 -55 -50 -44 -29 -10 -52 -47 -41 -26 -7 -46 -40 -25 -6 -39 -24 -5 -23 -4 -2 0
-2 -4 -5 -6 -7 -11 -23 -24 -25 -26 -30 -39 -40 -41 -45 -46 -47 -51 -52 -56 -60 0
-11 -7 -6 -5 -4 -2 -60 -56 -51 -45 -30 -52 -47 -41 -26 -46 -40 -25 -39 -24 -23 0
-2 -30 -26 -25 -24 -23 -11 -7 -6 -5 -4 -60 -56 -51 -45 -52 -47 -41 -46 -40 -39 0
-23 -24 -25 -26 -30 -2 -39 -40 -41 -45 -4 -46 -47 -51 -5 -52 -56 -6 -60 -7 -11 0
-23 -4 -45 -41 -40 -39 -2 -30 -26 -25 -24 -11 -7 -6 -5 -60 -56 -51 -52 -47 -46 0
-39 -40 -41 -45 -4 -23 -46 -47 -51 -5 -24 -52 -56 -6 -25 -60 -7 -26 -11 -30 -2 0
-39 -24 -5 -51 -47 -46 -23 -4 -45 -41 -40 -2 -30 -26 -25 -11 -7 -6 -60 -56 -52 0
-46 -47 -51 -5 -24 -39 -52 -56 -6 -25 -40 -60 -7 -26 -41 -11 -30 -45 -2 -4 -23 0
-46 -40 -25 -6 -56 -52 -39 -24 -5 -51 -47 -23 -4 -45 -41 -2 -30 -26 -11 -7 -60 0
-52 -56 -6 -25 -40 -46 -60 -7 -26 -41 -47 -11 -30 -45 -51 -2 -4 -5 -23 -24 -39 0
-52 -47 -41 -26 -7 -60 -46 -40 -25 -6 -56 -39 -24 -5 -51 -23 -4 -45 -2 -30 -11 0
-60 -7 -26 -41 -47 -52 -11 -30 -45 -51 -56 -2 -4 -5 -6 -23 -24 -25 -39 -40 -46 0
-11 -30 -45 -51 -56 -60 -2 -4 -5 -6 -7 -23 -24 -25 -26 -39 -40 -41 -46 -47 -52 0
-60 -56 -51 -45 -30 -11 -52 -47 -41 -26 -7 -46 -40 -25 -6 -39 -24 -5 -23 -4 -2 0
-2 -4 -5 -6 -8 -9 -23 -24 -25 -27 -28 -39 -40 -42 -43 -46 -48 -49 -53 -54 -61 0
-9 -8 -6 -5 -4 -2 -61 -54 -49 -43 -28 -53 -48 -42 -27 -46 -40 -25 -39 -24 -23 0
-2 -28 -27 -25 -24 -23 -9 -8 -6 -5 -4 -61 -54 -49 -43 -53 -48 -42 -46 -40 -39 0
-23 -24 -25 -27 -28 -2 -39 -40 -42 -43 -4 -46 -48 -49 -5 -53 -54 -6 -61 -8 -9 0
-23 -4 -43 -42 -40 -39 -2 -28 -27 -25 -24 -9 -8 -6 -5 -61 -54 -49 -53 -48 -46 0
-39 -40 -42 -43 -4 -23 -46 -48 -49 -5 -24 -53 -54 -6 -25 -61 -8 -27 -9 -28 -2 0
-39 -24 -5 -49 -48 -46 -23 -4 -43 -42 -40 -2 -28 -27 -25 -9 -8 -6 -61 -54 -53 0
-46 -48 -49 -5 -24 -39 -53 -54 -6 -25 -40 -61 -8 -27 -42 -9 -28 -43 -2 -4 -23 0
-46 -40 -25 -6 -54 -53 -39 -24 -5 -49 -48 -23 -4 -43 -42 -2 -28 -27 -9 -8 -61 0
-53 -54 -6 -25 -40 -46 -61 -8 -27 -42 -48 -9 -28 -43 -49 -2 -4 -5 -23 -24 -39 0
-53 -48 -42 -27 -8 -61 -46 -40 -25 -6 -54 -39 -24 -5 -49 -23 -4 -43 -2 -28 -9 0
-61 -8 -27 -42 -48 -53 -9 -28 -43 -49 -54 -2 -4 -5 -6 -23 -24 -25 -39 -40 -46 0
-9 -28 -43 -49 -54 -61 -2 -4 -5 -6 -8 -23 -24 -25 -27 -39 -40 -42 -46 -48 -53 0
-61 -54 -49 -43 -28 -9 -53 -48 -42 -27 -8 -46 -40 -25 -6 -39 -24 -5 -23 -4 -2 0
-2 -4 -5 -6 -8 -10 -23 -24 -25 -27 -29 -39 -40 -42 -44 -46 -48 -50 -53 -55 -62 0
-10 -8 -6 -5 -4 -2 -62 -55 -50 -44 -29 -53 -48 -42 -27 -46 -40 -25 -39 -24 -23 0
-2 -29 -27 -25 -24 -23 -10 -8 -6 -5 -4 -62 -55 -50 -44 -53 -48 -42 -46 -40 -39 0
-23 -24 -25 -27 -29 -2 -39 -40 -42 -44 -4 -46 -48 -50 -5 -53 -55 -6 -62 -8 -10 0
-23 -4 -44 -42 -40 -39 -2 -29 -27 -25 -24 -10 -8 -6 -5 -62 -55 -50 -53 -48 -46 0
-39 -40 -42 -44 -4 -23 -46 -48 -50 -5 -24 -53 -55 -6 -25 -62 -8 -27 -10 -29 -2 0
-39 -24 -5 -50 -48 -46 -23 -4 -44 -42 -40 -2 -29 -27 -25 -10 -8 -6 -62 -55 -53 0
-46 -48 -50 -5 -24 -39 -53 -55 -6 -25 -40 -62 -8 -27 -42 -10 -29 -44 -2 -4 -23 0
-46 -40 -25 -6 -55 -53 -39 -24 -5 -50 -48 -23 -4 -44 -42 -2 -29 -27 -10 -8 -62 0
-53 -55 -6 -25 -40 -46 -62 -8 -27 -42 -48 -10 -29 -44 -50 -2 -4 -5 -23 -24 -39 0
-53 -48 -42 -27 -8 -62 -46 -40 -25 -6 -55 -39 -24 -5 -50 -23 -4 -44 -2 -29 -10 0
-62 -8 -27 -42 -48 -53 -10 -29 -44 -50 -55 -2 -4 -5 -6 -23 -24 -25 -39 -40 -46 0
-10 -29 -44 -50 -55 -62 -2 -4 -5 -6 -8 -23 -24 -25 -27 -39 -40 -42 -46 -48 -53 0
-62 -55 -50 -44 -29 -10 -53 -48 -42 -27 -8 -46 -40 -25 -6 -39 -24 -5 -23 -4 -2 0
-2 -4 -5 -6 -8 -11 -23 -24 -25 -27 -30 -39 -40 -42 -45 -46 -48 -51 -53 -56 -63 0
-11 -8 -6 -5 -4 -2 -63 -56 -51 -45 -30 -53 -48 -42 -27 -46 -40 -25 -39 -24 -23 0
-2 -30 -27 -25 -24 -23 -11 -8 -6 -5 -4 -63 -56 -51 -45 -53 -48 -42 -46 -40 -39 0
-23 -24 -25 -27 -30 -2 -39 -40 -42 -45 -4 -46 -48 -51 -5 -53 -56 -6 -63 -8 -11 0
-23 -4 -45 -42 -40 -39 -2 -30 -27 -25 -24 -11 -8 -6 -5 -63 -56 -51 -53 -48 -46 0
-39 -40 -42 -45 -4 -23 -46 -48 -51 -5 -24 -53 -56 -6 -25 -63 -8 -27 -11 -30 -2 0
-39 -24 -5 -51 -48 -46 -23 -4 -45 -42 -40 -2 -30 -27 -25 -11 -8 -6 -63 -56 -53 0
-46 -48 -51 -5 -24 -39 -53 -56 -6 -25 -40 -63 -8 -27 -42 -11 -30 -45 -2 -4 -23 0
-46 -40 -25 -6 -56 -53 -39 -24 -5 -51 -48 -23 -4 -45 -42 -2 -30 -27 -11 -8 -63 0
-53 -56 -6 -25 -40 -46 -63 -8 -27 -42 -48 -11 -30 -45 -51 -2 -4 -5 -23 -24 -39 0
-53 -48 -42 -27 -8 -63 -46 -40 -25 -6 -56 -39 -24 -5 -51 -23 -4 -45 -2 -30 -11 0
-63 -8 -27 -42 -48 -53 -11 -30 -45 -51 -56 -2 -4 -5 -6 -23 -24 -25 -39 -40 -46 0
-11 -30 -45 -51 -56 -63 -2 -4 -5 -6 -8 -23 -24 -25 -27 -39 -40 -42 -46 -48 -53 0
-63 -56 -51 -45 -30 -11 -53 -48 -42 -27 -8 -46 -40 -25 -6 -39 -24 -5 -23 -4 -2 0
-2 -4 -5 -6 -9 -10 -23 -24 -25 -28 -29 -39 -40 -43 -44 -46 -49 -50 -54 -55 -64 0
-10 -9 -6 -5 -4 -2 -64 -55 -50 -44 -29 -54 -49 -43 -28 -46 -40 -25 -39 -24 -23 0
-2 -29 -28 -25 -24 -23 -10 -9 -6 -5 -4 -64 -55 -50 -44 -54 -49 -43 -46 -40 -39 0
-23 -24 -25 -28 -29 -2 -39 -40 -43 -44 -4 -46 -49 -50 -5 -54 -55 -6 -64 -9 -10 0
-23 -4 -44 -43 -40 -39 -2 -29 -28 -25 -24 -10 -9 -6 -5 -64 -55 -50 -54 -49 -46 0
-39 -40 -43 -44 -4 -23 -46 -49 -50 -5 -24 -54 -55 -6 -25 -64 -9 -28 -10 -29 -2 0
-39 -24 -5 -50 -49 -46 -23 -4 -44 -43 -40 -2 -29 -28 -25 -10 -9 -6 -64 -55 -54 0
-46 -49 -50 -5 -24 -39 -54 -55 -6 -25 -40 -64 -9 -28 -43 -10 -29 -44 -2 -4 -23 0
-46 -40 -25 -6 -55 -54 -39 -24 -5 -50 -49 -23 -4 -44 -43 -2 -29 -28 -10 -9 -64 0
-54 -55 -6 -25 -40 -46 -64 -9 -28 -43 -49 -10 -29 -44 -50 -2 -4 -5 -23 -24 -39 0
-54 -49 -43 -28 -9 -64 -46 -40 -25 -6 -55 -39 -24 -5 -50 -23 -4 -44 -2 -29 -10 0
-64 -9 -28 -43 -49 -54 -10 -29 -44 -50 -55 -2 -4 -5 -6 -23 -24 -25 -39 -40 -46 0
-10 -29 -44 -50 -55 -64 -2 -4 -5 -6 -9 -23 -24 -25 -28 -39 -40 -43 -46 -49 -54 0
-64 -55 -50 -44 -29 -10 -54 -49 -43 -28 -9 -46 -40 -25 -6 -39 -24 -5 -23 -4 -2 0
-2 -4 -5 -6 -9 -11 -23 -24 -25 -28 -30 -39 -40 -43 -45 -46 -49 -51 -54 -56 -65 0
-11 -9 -6 -5 -4 -2 -65 -56 -51 -45 -30 -54 -49 -43 -28 -46 -40 -25 -39 -24 -23 0
-2 -30 -28 -25 -24 -23 -11 -9 -6 -5 -4 -65 -56 -51 -45 -54 -49 -43 -46 -40 -39 0
-23 -24 -25 -28 -30 -2 -39 -40 -43 -45 -4 -46 -49 -51 -5 -54 -56 -6 -65 -9 -11 0
-23 -4 -45 -43 -40 -39 -2 -30 -28 -25 -24 -11 -9 -6 -5 -65 -56 -51 -54 -49 -46 0
-39 -40 -43 -45 -4 -23 -46 -49 -51 -5 -24 -54 -56 -6 -25 -65 -9 -28 -11 -30 -2 0
-39 -24 -5 -51 -49 -46 -23 -4 -45 -43 -40 -2 -30 -28 -25 -11 -9 -6 -65 -56 -54 0
-46 -49 -51 -5 -24 -39 -54 -56 -6 -25 -40 -65 -9 -28 -43 -11 -30 -45 -2 -4 -23 0
-46 -40 -25 -6 -56 -54 -39 -24 -5 -51 -49 -23 -4 -45 -43 -2 -30 -28 -11 -9 -65 0
-54 -56 -6 -25 -40 -46 -65 -9 -28 -43 -49 -11 -30 -45 -51 -2 -4 -5 -23 -24 -39 0
-54 -49 -43 -28 -9 -65 -46 -40 -25 -6 -56 -39 -24 -5 -51 -23 -4 -45 -2 -30 -11 0
-65 -9 -28 -43 -49 -54 -11 -30 -45 -51 -56 -2 -4 -5 -6 -23 -24 -25 -39 -40 -46 0
-11 -30 -45 -51 -56 -65 -2 -4 -5 -6 -9 -23 -24 -25 -28 -39 -40 -43 -46 -49 -54 0
-65 -56 -51 -45 -30 -11 -54 -49 -43 -28 -9 -46 -40 -25 -6 -39 -24 -5 -23 -4 -2 0
-2 -4 -5 -6 -10 -11 -23 -24 -25 -29 -30 -39 -40 -44 -45 -46 -50 -51 -55 -56 -66 0
-11 -10 -6 -5 -4 -2 -66 -56 -51 -45 -30 -55 -50 -44 -29 -46 -40 -25 -39 -24 -23 0
-2 -30 -29 -25 -24 -23 -11 -10 -6 -5 -4 -66 -56 -51 -45 -55 -50 -44 -46 -40 -39 0
-23 -24 -25 -29 -30 -2 -39 -40 -44 -45 -4 -46 -50 -51 -5 -55 -56 -6 -66 -10 -11 0
-23 -4 -45 -44 -40 -39 -2 -30 -29 -25 -24 -11 -10 -6 -5 -66 -56 -51 -55 -50 -46 0
-39 -40 -44 -45 -4 -23 -46 -50 -51 -5 -24 -55 -56 -6 -25 -66 -10 -29 -11 -30 -2 0
-39 -24 -5 -51 -50 -46 -23 -4 -45 -44 -40 -2 -30 -29 -25 -11 -10 -6 -66 -56 -55 0
-46 -50 -51 -5 -24 -39 -55 -56 -6 -25 -40 -66 -10 -29 -44 -11 -30 -45 -2 -4 -23 0
-46 -40 -25 -6 -56 -55 -39 -24 -5 -51 -50 -23 -4 -45 -44 -2 -30 -29 -11 -10 -66 0
-55 -56 -6 -25 -40 -46 -66 -10 -29 -44 -50 -11 -30 -45 -51 -2 -4 -5 -23 -24 -39 0
-55 -50 -44 -29 -10 -66 -46 -40 -25 -6 -56 -39 -24 -5 -51 -23 -4 -45 -2 -30 -11 0
-66 -10 -29 -44 -50 -55 -11 -30 -45 -51 -56 -2 -4 -5 -6 -23 -24 -25 -39 -40 -46 0
-11 -30 -45 -51 -56 -66 -2 -4 -5 -6 -10 -23 -24 -25 -29 -39 -40 -44 -46 -50 -55 0
-66 -56 -51 -45 -30 -11 -55 -50 -44 -29 -10 -46 -40 -25 -6 -39 -24 -5 -23 -4 -2 0
-2 -4 -5 -7 -8 -9 -23 -24 -26 -27 -28 -39 -41 -42 -43 -47 -48 -49 -57 -58 -61 0
-9 -8 -7 -5 -4 -2 -61 -58 -49 -43 -28 -57 -48 -42 -27 -47 -41 -26 -39 -24 -23 0
-2 -28 -27 -26 -24 -23 -9 -8 -7 -5 -4 -61 -58 -49 -43 -57 -48 -42 -47 -41 -39 0
-23 -24 -26 -27 -28 -2 -39 -41 -42 -43 -4 -47 -48 -49 -5 -57 -58 -7 -61 -8 -9 0
-23 -4 -43 -42 -41 -39 -2 -28 -27 -26 -24 -9 -8 -7 -5 -61 -58 -49 -57 -48 -47 0
-39 -41 -42 -43 -4 -23 -47 -48 -49 -5 -24 -57 -58 -7 -26 -61 -8 -27 -9 -28 -2 0
-39 -24 -5 -49 -48 -47 -23 -4 -43 -42 -41 -2 -28 -27 -26 -9 -8 -7 -61 -58 -57 0
-47 -48 -49 -5 -24 -39 -57 -58 -7 -26 -41 -61 -8 -27 -42 -9 -28 -43 -2 -4 -23 0
-47 -41 -26 -7 -58 -57 -39 -24 -5 -49 -48 -23 -4 -43 -42 -2 -28 -27 -9 -8 -61 0
-57 -58 -7 -26 -41 -47 -61 -8 -27 -42 -48 -9 -28 -43 -49 -2 -4 -5 -23 -24 -39 0
-57 -48 -42 -27 -8 -61 -47 -41 -26 -7 -58 -39 -24 -5 -49 -23 -4 -43 -2 -28 -9 0
-61 -8 -27 -42 -48 -57 -9 -28 -43 -49 -58 -2 -4 -5 -7 -23 -24 -26 -39 -41 -47 0
-9 -28 -43 -49 -58 -61 -2 -4 -5 -7 -8 -23 -24 -26 -27 -39 -41 -42 -47 -48 -57 0
-61 -58 -49 -43 -28 -9 -57 -48 -42 -27 -8 -47 -41 -26 -7 -39 -24 -5 -23 -4 -2 0
-2 -4 -5 -7 -8 -10 -23 -24 -26 -27 -29 -39 -41 -42 -44 -47 -48 -50 -57 -59 -62 0
-10 -8 -7 -5 -4 -2 -62 -59 -50 -44 -29 -57 -48 -42 -27 -47 -41 -26 -39 -24 -23 0
-2 -29 -27 -26 -24 -23 -10 -8 -7 -5 -4 -62 -59 -50 -44 -57 -48 -42 -47 -41 -39 0
-23 -24 -26 -27 -29 -2 -39 -41 -42 -44 -4 -47 -48 -50 -5 -57 -59 -7 -62 -8 -10 0
-23 -4 -44 -42 -41 -39 -2 -29 -27 -26 -24 -10 -8 -7 -5 -62 -59 -50 -57 -48 -47 0
-39 -41 -42 -44 -4 -23 -47 -48 -50 -5 -24 -57 -59 -7 -26 -62 -8 -27 -10 -29 -2 0
-39 -24 -5 -50 -48 -47 -23 -4 -44 -42 -41 -2 -29 -27 -26 -10 -8 -7 -62 -59 -57 0
-47 -48 -50 -5 -24 -39 -57 -59 -7 -26 -41 -62 -8 -27 -42 -10 -29 -44 -2 -4 -23 0
-47 -41 -26 -7 -59 -57 -39 -24 -5 -50 -48 -23 -4 -44 -42 -2 -29 -27 -10 -8 -62 0
-57 -59 -7 -26 -41 -47 -62 -8 -27 -42 -48 -10 -29 -44 -50 -2 -4 -5 -23 -24 -39 0
-57 -48 -42 -27 -8 -62 -47 -41 -26 -7 -59 -39 -24 -5 -50 -23 -4 -44 -2 -29 -10 0
-62 -8 -27 -42 -48 -57 -10 -29 -44 -50 -59 -2 -4 -5 -7 -23 -24 -26 -39 -41 -47 0
-10 -29 -44 -50 -59 -62 -2 -4 -5 -7 -8 -23 -24 -26 -27 -39 -41 -42 -47 -48 -57 0
-62 -59 -50 -44 -29 -10 -57 -48 -42 -27 -8 -47 -41 -26 -7 -39 -24 -5 -23 -4 -2 0
-2 -4 -5 -7 -8 -11 -23 -24 -26 -27 -30 -39 -41 -42 -45 -47 -48 -51 -57 -60 -63 0
-11 -8 -7 -5 -4 -2 -63 -60 -51 -45 -30 -57 -48 -42 -27 -47 -41 -26 -39 -24 -23 0
-2 -30 -27 -26 -24 -23 -11 -8 -7 -5 -4 -63 -60 -51 -45 -57 -48 -42 -47 -41 -39 0
-23 -24 -26 -27 -30 -2 -39 -41 -42 -45 -4 -47 -48 -51 -5 -57 -60 -7 -63 -8 -11 0
-23 -4 -45 -42 -41 -39 -2 -30 -27 -26 -24 -11 -8 -7 -5 -63 -60 -51 -57 -48 -47 0
-39 -41 -42 -45 -4 -23 -47 -48 -51 -5 -24 -57 -60 -7 -26 -63 -8 -27 -11 -30 -2 0
-39 -24 -5 -51 -48 -47 -23 -4 -45 -42 -41 -2 -30 -27 -26 -11 -8 -7 -63 -60 -57 0
-47 -48 -51 -5 -24 -39 -57 -60 -7 -26 -41 -63 -8 -27 -42 -11 -30 -45 -2 -4 -23 0
-47 -41 -26 -7 -60 -57 -39 -24 -5 -51 -48 -23 -4 -45 -42 -2 -30 -27 -11 -8 -63 0
-57 -60 -7 -26 -41 -47 -63 -8 -27 -42 -48 -11 -30 -45 -51 -2 -4 -5 -23 -24 -39 0
-57 -48 -42 -27 -8 -63 -47 -41 -26 -7 -60 -39 -24 -5 -51 -23 -4 -45 -2 -30 -11 0
-63 -8 -27 -42 -48 -57 -11 -30 -45 -51 -60 -2 -4 -5 -7 -23 -24 -26 -39 -41 -47 0
-11 -30 -45 -51 -60 -63 -2 -4 -5 -7 -8 -23 -24 -26 -27 -39 -41 -42 -47 -48 -57 0
-63 -60 -51 -45 -30 -11 -57 -48 -42 -27 -8 -47 -41 -26 -7 -39 -24 -5 -23 -4 -2 0
-2 -4 -5 -7 -9 -10 -23 -24 -26 -28 -29 -39 -41 -43 -44 -47 -49 -50 -58 -59 -64 0
-10 -9 -7 -5 -4 -2 -64 -59 -50 -44 -29 -58 -49 -43 -28 -47 -41 -26 -39 -24 -23 0
-2 -29 -28 -26 -24 -23 -10 -9 -7 -5 -4 -64 -59 -50 -44 -58 -49 -43 -47 -41 -39 0
-23 -24 -26 -28 -29 -2 -39 -41 -43 -44 -4 -47 -49 -50 -5 -58 -59 -7 -64 -9 -10 0
-23 -4 -44 -43 -41 -39 -2 -29 -28 -26 -24 -10 -9 -7 -5 -64 -59 -50 -58 -49 -47 0
-39 -41 -43 -44 -4 -23 -47 -49 -50 -5 -24 -58 -59 -7 -26 -64 -9 -28 -10 -29 -2 0
-39 -24 -5 -50 -49 -47 -23 -4 -44 -43 -41 -2 -29 -28 -26 -10 -9 -7 -64 -59 -58 0
-47 -49 -50 -5 -24 -39 -58 -59 -7 -26 -41 -64 -9 -28 -43 -10 -29 -44 -2 -4 -23 0
-47 -41 -26 -7 -59 -58 -39 -24 -5 -50 -49 -23 -4 -44 -43 -2 -29 -28 -10 -9 -64 0
-58 -59 -7 -26 -41 -47 -64 -9 -28 -43 -49 -10 -29 -44 -50 -2 -4 -5 -23 -24 -39 0
-58 -49 -43 -28 -9 -64 -47 -41 -26 -7 -59 -39 -24 -5 -50 -23 -4 -44 -2 -29 -10 0
-64 -9 -28 -43 -49 -58 -10 -29 -44 -50 -59 -2 -4 -5 -7 -23 -24 -26 -39 -41 -47 0
-10 -29 -44 -50 -59 -64 -2 -4 -5 -7 -9 -23 -24 -26 -28 -39 -41 -43 -47 -49 -58 0
-64 -59 -50 -44 -29 -10 -58 -49 -43 -28 -9 -47 -41 -26 -7 -39 -24 -5 -23 -4 -2 0
-2 -4 -5 -7 -9 -11 -23 -24 -26 -28 -30 -39 -41 -43 -45 -47 -49 -51 -58 -60 -65 0
-11 -9 -7 -5 -4 -2 -65 -60 -51 -45 -30 -58 -49 -43 -28 -47 -41 -26 -39 -24 -23 0
-2 -30 -28 -26 -24 -23 -11 -9 -7 -5 -4 -65 -60 -51 -45 -58 -49 -43 -47 -41 -39 0
-23 -24 -26 -28 -30 -2 -39 -41 -43 -45 -4 -47 -49 -51 -5 -58 -60 -7 -65 -9 -11 0
-23 -4 -45 -43 -41 -39 -2 -30 -28 -26 -24 -11 -9 -7 -5 -65 -60 -51 -58 -49 -47 0
-39 -41 -43 -45 -4 -23 -47 -49 -51 -5 -24 -58 -60 -7 -26 -65 -9 -28 -11 -30 -2 0
-39 -24 -5 -51 -49 -47 -23 -4 -45 -43 -41 -2 -30 -28 -26 -11 -9 -7 -65 -60 -58 0
-47 -49 -51 -5 -24 -39 -58 -60 -7 -26 -41 -65 -9 -28 -43 -11 -30 -45 -2 -4 -23 0
-47 -41 -26 -7 -60 -58 -39 -24 -5 -51 -49 -23 -4 -45 -43 -2 -30 -28 -11 -9 -65 0
-58 -60 -7 -26 -41 -47 -65 -9 -28 -43 -49 -11 -30 -45 -51 -2 -4 -5 -23 -24 -39 0
-58 -49 -43 -28 -9 -65 -47 -41 -26 -7 -60 -39 -24 -5 -51 -23 -4 -45 -2 -30 -11 0
-65 -9 -28 -43 -49 -58 -11 -30 -45 -51 -60 -2 -4 -5 -7 -23 -24 -26 -39 -41 -47 0
-11 -30 -45 -51 -60 -65 -2 -4 -5 -7 -9 -23 -24 -26 -28 -39 -41 -43 -47 -49 -58 0
-65 -60 -51 -45 -30 -11 -58 -49 -43 -28 -9 -47 -41 -26 -7 -39 -24 -5 -23 -4 -2 0
-2 -4 -5 -7 -10 -11 -23 -24 -26 -29 -30 -39 -41 -44 -45 -47 -50 -51 -59 -60 -66 0
-11 -10 -7 -5 -4 -2 -66 -60 -51 -45 -30 -59 -50 -44 -29 -47 -41 -26 -39 -24 -23 0
-2 -30 -29 -26 -24 -23 -11 -10 -7 -5 -4 -66 -60 -51 -45 -59 -50 -44 -47 -41 -39 0
-23 -24 -26 -29 -30 -2 -39 -41 -44 -45 -4 -47 -50 -51 -5 -59 -60 -7 -66 -10 -11 0
-23 -4 -45 -44 -41 -39 -2 -30 -29 -26 -24 -11 -10 -7 -5 -66 -60 -51 -59 -50 -47 0
-39 -41 -44 -45 -4 -23 -47 -50 -51 -5 -24 -59 -60 -7 -26 -66 -10 -29 -11 -30 -2 0
-39 -24 -5 -51 -50 -47 -23 -4 -45 -44 -41 -2 -30 -29 -26 -11 -10 -7 -66 -60 -59 0
-47 -50 -51 -5 -24 -39 -59 -60 -7 -26 -41 -66 -10 -29 -44 -11 -30 -45 -2 -4 -23 0
-47 -41 -26 -7 -60 -59 -39 -24 -5 -51 -50 -23 -4 -45 -44 -2 -30 -29 -11 -10 -66 0
-59 -60 -7 -26 -41 -47 -66 -10 -29 -44 -50 -11 -30 -45 -51 -2 -4 -5 -23 -24 -39 0
-59 -50 -44 -29 -10 -66 -47 -41 -26 -7 -60 -39 -24 -5 -51 -23 -4 -45 -2 -30 -11 0
-66 -10 -29 -44 -50 -59 -11 -30 -45 -51 -60 -2 -4 -5 -7 -23 -24 -26 -39 -41 -47 0
-11 -30 -45 -51 -60 -66 -2 -4 -5 -7 -10 -23 -24 -26 -29 -39 -41 -44 -47 -50 -59 0
-66 -60 -51 -45 -30 -11 -59 -50 -44 -29 -10 -47 -41 -26 -7 -39 -24 -5 -23 -4 -2 0
-2 -4 -5 -8 -9 -10 -23 -24 -27 -28 -29 -39 -42 -43 -44 -48 -49 -50 -61 -62 -64 0
-10 -9 -8 -5 -4 -2 -64 -62 -50 -44 -29 -61 -49 -43 -28 -48 -42 -27 -39 -24 -23 0
-2 -29 -28 -27 -24 -23 -10 -9 -8 -5 -4 -64 -62 -50 -44 -61 -49 -43 -48 -42 -39 0
-23 -24 -27 -28 -29 -2 -39 -42 -43 -44 -4 -48 -49 -50 -5 -61 -62 -8 -64 -9 -10 0
-23 -4 -44 -43 -42 -39 -2 -29 -28 -27 -24 -10 -9 -8 -5 -64 -62 -50 -61 -49 -48 0
-39 -42 -43 -44 -4 -23 -48 -49 -50 -5 -24 -61 -62 -8 -27 -64 -9 -28 -10 -29 -2 0
-39 -24 -5 -50 -49 -48 -23 -4 -44 -43 -42 -2 -29 -28 -27 -10 -9 -8 -64 -62 -61 0
-48 -49 -50 -5 -24 -39 -61 -62 -8 -27 -42 -64 -9 -28 -43 -10 -29 -44 -2 -4 -23 0
-48 -42 -27 -8 -62 -61 -39 -24 -5 -50 -49 -23 -4 -44 -43 -2 -29 -28 -10 -9 -64 0
-61 -62 -8 -27 -42 -48 -64 -9 -28 -43 -49 -10 -29 -44 -50 -2 -4 -5 -23 -24 -39 0
-61 -49 -43 -28 -9 -64 -48 -42 -27 -8 -62 -39 -24 -5 -50 -23 -4 -44 -2 -29 -10 0
-64 -9 -28 -43 -49 -61 -10 -29 -44 -50 -62 -2 -4 -5 -8 -23 -24 -27 -39 -42 -48 0
-10 -29 -44 -50 -62 -64 -2 -4 -5 -8 -9 -23 -24 -27 -28 -39 -42 -43 -48 -49 -61 0
-64 -62 -50 -44 -29 -10 -61 -49 -43 -28 -9 -48 -42 -27 -8 -39 -24 -5 -23 -4 -2 0
-2 -4 -5 -8 -9 -11 -23 -24 -27 -28 -30 -39 -42 -43 -45 -48 -49 -51 -61 -63 -65 0
-11 -9 -8 -5 -4 -2 -65 -63 -51 -45 -30 -61 -49 -43 -28 -48 -42 -27 -39 -24 -23 0
-2 -30 -28 -27 -24 -23 -11 -9 -8 -5 -4 -65 -63 -51 -45 -61 -49 -43 -48 -42 -39 0
-23 -24 -27 -28 -30 -2 -39 -42 -43 -45 -4 -48 -49 -51 -5 -61 -63 -8 -65 -9 -11 0
-23 -4 -45 -43 -42 -39 -2 -30 -28 -27 -24 -11 -9 -8 -5 -65 -63 -51 -61 -49 -48 0
-39 -42 -43 -45 -4 -23 -48 -49 -51 -5 -24 -61 -63 -8 -27 -65 -9 -28 -11 -30 -2 0
-39 -24 -5 -51 -49 -48 -23 -4 -45 -43 -42 -2 -30 -28 -27 -11 -9 -8 -65 -63 -61 0
-48 -49 -51 -5 -24 -39 -61 -63 -8 -27 -42 -65 -9 -28 -43 -11 -30 -45 -2 -4 -23 0
-48 -42 -27 -8 -63 -61 -39 -24 -5 -51 -49 -23 -4 -45 -43 -2 -30 -28 -11 -9 -65 0
-61 -63 -8 -27 -42 -48 -65 -9 -28 -43 -49 -11 -30 -45 -51 -2 -4 -5 -23 -24 -39 0
-61 -49 -43 -28 -9 -65 -48 -42 -27 -8 -63 -39 -24 -5 -51 -23 -4 -45 -2 -30 -11 0
-65 -9 -28 -43 -49 -61 -11 -30 -45 -51 -63 -2 -4 -5 -8 -23 -24 -27 -39 -42 -48 0
-11 -30 -45 -51 -63 -65 -2 -4 -5 -8 -9 -23 -24 -27 -28 -39 -42 -43 -48 -49 -61 0
-65 -63 -51 -45 -30 -11 -61 -49 -43 -28 -9 -48 -42 -27 -8 -39 -24 -5 -23 -4 -2 0
-2 -4 -5 -8 -10 -11 -23 -24 -27 -29 -30 -39 -42 -44 -45 -48 -50 -51 -62 -63 -66 0
-11 -10 -8 -5 -4 -2 -66 -63 -51 -45 -30 -62 -50 -44 -29 -48 -42 -27 -39 -24 -23 0
-2 -30 -29 -27 -24 -23 -11 -10 -8 -5 -4 -66 -63 -51 -45 -62 -50 -44 -48 -42 -39 0
-23 -24 -27 -29 -30 -2 -39 -42 -44 -45 -4 -48 -50 -51 -5 -62 -63 -8 -66 -10 -11 0
-23 -4 -45 -44 -42 -39 -2 -30 -29 -27 -24 -11 -10 -8 -5 -66 -63 -51 -62 -50 -48 0
-39 -42 -44 -45 -4 -23 -48 -50 -51 -5 -24 -62 -63 -8 -27 -66 -10 -29 -11 -30 -2 0
-39 -24 -5 -51 -50 -48 -23 -4 -45 -44 -42 -2 -30 -29 -27 -11 -10 -8 -66 -63 -62 0
-48 -50 -51 -5 -24 -39 -62 -63 -8 -27 -42 -66 -10 -29 -44 -11 -30 -45 -2 -4 -23 0
-48 -42 -27 -8 -63 -62 -39 -24 -5 -51 -50 -23 -4 -45 -44 -2 -30 -29 -11 -10 -66 0
-62 -63 -8 -27 -42 -48 -66 -10 -29 -44 -50 -11 -30 -45 -51 -2 -4 -5 -23 -24 -39 0
-62 -50 -44 -29 -10 -66 -48 -42 -27 -8 -63 -39 -24 -5 -51 -23 -4 -45 -2 -30 -11 0
-66 -10 -29 -44 -50 -62 -11 -30 -45 -51 -63 -2 -4 -5 -8 -23 -24 -27 -39 -42 -48 0
-11 -30 -45 -51 -63 -66 -2 -4 -5 -8 -10 -23 -24 -27 -29 -39 -42 -44 -48 -50 -62 0
-66 -63 -51 -45 -30 -11 -62 -50 -44 -29 -10 -48 -42 -27 -8 -39 -24 -5 -23 -4 -2 0
-2 -4 -5 -9 -10 -11 -23 -24 -28 -29 -30 -39 -43 -44 -45 -49 -50 -51 -64 -65 -66 0
-11 -10 -9 -5 -4 -2 -66 -65 -51 -45 -30 -64 -50 -44 -29 -49 -43 -28 -39 -24 -23 0
-2 -30 -29 -28 -24 -23 -11 -10 -9 -5 -4 -66 -65 -51 -45 -64 -50 -44 -49 -43 -39 0
-23 -24 -28 -29 -30 -2 -39 -43 -44 -45 -4 -49 -50 -51 -5 -64 -65 -9 -66 -10 -11 0
-23 -4 -45 -44 -43 -39 -2 -30 -29 -28 -24 -11 -10 -9 -5 -66 -65 -51 -64 -50 -49 0
-39 -43 -44 -45 -4 -23 -49 -50 -51 -5 -24 -64 -65 -9 -28 -66 -10 -29 -11 -30 -2 0
-39 -24 -5 -51 -50 -49 -23 -4 -45 -44 -43 -2 -30 -29 -28 -11 -10 -9 -66 -65 -64 0
-49 -50 -51 -5 -24 -39 -64 -65 -9 -28 -43 -66 -10 -29 -44 -11 -30 -45 -2 -4 -23 0
-49 -43 -28 -9 -65 -64 -39 -24 -5 -51 -50 -23 -4 -45 -44 -2 -30 -29 -11 -10 -66 0
-64 -65 -9 -28 -43 -49 -66 -10 -29 -44 -50 -11 -30 -45 -51 -2 -4 -5 -23 -24 -39 0
-64 -50 -44 -29 -10 -66 -49 -43 -28 -9 -65 -39 -24 -5 -51 -23 -4 -45 -2 -30 -11 0
-66 -10 -29 -44 -50 -64 -11 -30 -45 -51 -65 -2 -4 -5 -9 -23 -24 -28 -39 -43 -49 0
-11 -30 -45 -51 -65 -66 -2 -4 -5 -9 -10 -23 -24 -28 -29 -39 -43 -44 -49 -50 -64 0
-66 -65 -51 -45 -30 -11 -64 -50 -44 -29 -10 -49 -43 -28 -9 -39 -24 -5 -23 -4 -2 0
-2 -4 -6 -7 -8 -9 -23 -25 -26 -27 -28 -40 -41 -42 -43 -52 -53 -54 -57 -58 -61 0
-9 -8 -7 -6 -4 -2 -61 -58 -54 -43 -28 -57 -53 -42 -27 -52 -41 -26 -40 -25 -23 0
-2 -28 -27 -26 -25 -23 -9 -8 -7 -6 -4 -61 -58 -54 -43 -57 -53 -42 -52 -41 -40 0
-23 -25 -26 -27 -28 -2 -40 -41 -42 -43 -4 -52 -53 -54 -6 -57 -58 -7 -61 -8 -9 0
-23 -4 -43 -42 -41 -40 -2 -28 -27 -26 -25 -9 -8 -7 -6 -61 -58 -54 -57 -53 -52 0
-40 -41 -42 -43 -4 -23 -52 -53 -54 -6 -25 -57 -58 -7 -26 -61 -8 -27 -9 -28 -2 0
-40 -25 -6 -54 -53 -52 -23 -4 -43 -42 -41 -2 -28 -27 -26 -9 -8 -7 -61 -58 -57 0
-52 -53 -54 -6 -25 -40 -57 -58 -7 -26 -41 -61 -8 -27 -42 -9 -28 -43 -2 -4 -23 0
-52 -41 -26 -7 -58 -57 -40 -25 -6 -54 -53 -23 -4 -43 -42 -2 -28 -27 -9 -8 -61 0
-57 -58 -7 -26 -41 -52 -61 -8 -27 -42 -53 -9 -28 -43 -54 -2 -4 -6 -23 -25 -40 0
-57 -53 -42 -27 -8 -61 -52 -41 -26 -7 -58 -40 -25 -6 -54 -23 -4 -43 -2 -28 -9 0
-61 -8 -27 -42 -53 -57 -9 -28 -43 -54 -58 -2 -4 -6 -7 -23 -25 -26 -40 -41 -52 0
-9 -28 -43 -54 -58 -61 -2 -4 -6 -7 -8 -23 -25 -26 -27 -40 -41 -42 -52 -53 -57 0
-61 -58 -54 -43 -28 -9 -57 -53 -42 -27 -8 -52 -41 -26 -7 -40 -25 -6 -23 -4 -2 0
-2 -4 -6 -7 -8 -10 -23 -25 -26 -27 -29 -40 -41 -42 -44 -52 -53 -55 -57 -59 -62 0
-10 -8 -7 -6 -4 -2 -62 -59 -55 -44 -29 -57 -53 -42 -27 -52 -41 -26 -40 -25 -23 0
-2 -29 -27 -26 -25 -23 -10 -8 -7 -6 -4 -62 -59 -55 -44 -57 -53 -42 -52 -41 -40 0
-23 -25 -26 -27 -29 -2 -40 -41 -42 -44 -4 -52 -53 -55 -6 -57 -59 -7 -62 -8 -10 0
-23 -4 -44 -42 -41 -40 -2 -29 -27 -26 -25 -10 -8 -7 -6 -62 -59 -55 -57 -53 -52 0
-40 -41 -42 -44 -4 -23 -52 -53 -55 -6 -25 -57 -59 -7 -26 -62 -8 -27 -10 -29 -2 0
-40 -25 -6 -55 -53 -52 -23 -4 -44 -42 -41 -2 -29 -27 -26 -10 -8 -7 -62 -59 -57 0
-52 -53 -55 -6 -25 -40 -57 -59 -7 -26 -41 -62 -8 -27 -42 -10 -29 -44 -2 -4 -23 0
-52 -41 -26 -7 -59 -57 -40 -25 -6 -55 -53 -23 -4 -44 -42 -2 -29 -27 -10 -8 -62 0
-57 -59 -7 -26 -41 -52 -62 -8 -27 -42 -53 -10 -29 -44 -55 -2 -4 -6 -23 -25 -40 0
-57 -53 -42 -27 -8 -62 -52 -41 -26 -7 -59 -40 -25 -6 -55 -23 -4 -44 -2 -29 -10 0
-62 -8 -27 -42 -53 -57 -10 -29 -44 -55 -59 -2 -4 -6 -7 -23 -25 -26 -40 -41 -52 0
-10 -29 -44 -55 -59 -62 -2 -4 -6 -7 -8 -23 -25 -26 -27 -40 -41 -42 -52 -53 -57 0
-62 -59 -55 -44 -29 -10 -57 -53 -42 -27 -8 -52 -41 -26 -7 -40 -25 -6 -23 -4 -2 0
-2 -4 -6 -7 -8 -11 -23 -25 -26 -27 -30 -40 -41 -42 -45 -52 -53 -56 -57 -60 -63 0
-11 -8 -7 -6 -4 -2 -63 -60 -56 -45 -30 -57 -53 -42 -27 -52 -41 -26 -40 -25 -23 0
-2 -30 -27 -26 -25 -23 -11 -8 -7 -6 -4 -63 -60 -56 -45 -57 -53 -42 -52 -41 -40 0
-23 -25 -26 -27 -30 -2 -40 -41 -42 -45 -4 -52 -53 -56 -6 -57 -60 -7 -63 -8 -11 0
-23 -4 -45 -42 -41 -40 -2 -30 -27 -26 -25 -11 -8 -7 -6 -63 -60 -56 -57 -53 -52 0
-40 -41 -42 -45 -4 -23 -52 -53 -56 -6 -25 -57 -60 -7 -26 -63 -8 -27 -11 -30 -2 0
-40 -25 -6 -56 -53 -52 -23 -4 -45 -42 -41 -2 -30 -27 -26 -11 -8 -7 -63 -60 -57 0
-52 -53 -56 -6 -25 -40 -57 -60 -7 -26 -41 -63 -8 -27 -42 -11 -30 -45 -2 -4 -23 0
-52 -41 -26 -7 -60 -57 -40 -25 -6 -56 -53 -23 -4 -45 -42 -2 -30 -27 -11 -8 -63 0
-57 -60 -7 -26 -41 -52 -63 -8 -27 -42 -53 -11 -30 -45 -56 -2 -4 -6 -23 -25 -40 0
-57 -53 -42 -27 -8 -63 -52 -41 -26 -7 -60 -40 -25 -6 -56 -23 -4 -45 -2 -30 -11 0
-63 -8 -27 -42 -53 -57 -11 -30 -45 -56 -60 -2 -4 -6 -7 -23 -25 -26 -40 -41 -52 0
-11 -30 -45 -56 -60 -63 -2 -4 -6 -7 -8 -23 -25 -26 -27 -40 -41 -42 -52 -53 -57 0
-63 -60 -56 -45 -30 -11 -57 -53 -42 -27 -8 -52 -41 -26 -7 -40 -25 -6 -23 -4 -2 0
-2 -4 -6 -7 -9 -10 -23 -25 -26 -28 -29 -40 -41 -43 -44 -52 -54 -55 -58 -59 -64 0
-10 -9 -7 -6 -4 -2 -64 -59 -55 -44 -29 -58 -54 -43 -28 -52 -41 -26 -40 -25 -23 0
-2 -29 -28 -26 -25 -23 -10 -9 -7 -6 -4 -64 -59 -55 -44 -58 -54 -43 -52 -41 -40 0
-23 -25 -26 -28 -29 -2 -40 -41 -43 -44 -4 -52 -54 -55 -6 -58 -59 -7 -64 -9 -10 0
-23 -4 -44 -43 -41 -40 -2 -29 -28 -26 -25 -10 -9 -7 -6 -64 -59 -55 -58 -54 -52 0
-40 -41 -43 -44 -4 -23 -52 -54 -55 -6 -25 -58 -59 -7 -26 -64 -9 -28 -10 -29 -2 0
-40 -25 -6 -55 -54 -52 -23 -4 -44 -43 -41 -2 -29 -28 -26 -10 -9 -7 -64 -59 -58 0
-52 -54 -55 -6 -25 -40 -58 -59 -7 -26 -41 -64 -9 -28 -43 -10 -29 -44 -2 -4 -23 0
-52 -41 -26 -7 -59 -58 -40 -25 -6 -55 -54 -23 -4 -44 -43 -2 -29 -28 -10 -9 -64 0
-58 -59 -7 -26 -41 -52 -64 -9 -28 -43 -54 -10 -29 -44 -55 -2 -4 -6 -23 -25 -40 0
-58 -54 -43 -28 -9 -64 -52 -41 -26 -7 -59 -40 -25 -6 -55 -23 -4 -44 -2 -29 -10 0
-64 -9 -28 -43 -54 -58 -10 -29 -44 -55 -59 -2 -4 -6 -7 -23 -25 -26 -40 -41 -52 0
-10 -29 -44 -55 -59 -64 -2 -4 -6 -7 -9 -23 -25 -26 -28 -40 -41 -43 -52 -54 -58 0
-64 -59 -55 -44 -29 -10 -58 -54 -43 -28 -9 -52 -41 -26 -7 -40 -25 -6 -23 -4 -2 0
-2 -4 -6 -7 -9 -11 -23 -25 -26 -28 -30 -40 -41 -43 -45 -52 -54 -56 -58 -60 -65 0
-11 -9 -7 -6 -4 -2 -65 -60 -56 -45 -30 -58 -54 -43 -28 -52 -41 -26 -40 -25 -23 0
-2 -30 -28 -26 -25 -23 -11 -9 -7 -6 -4 -65 -60 -56 -45 -58 -54 -43 -52 -41 -40 0
-23 -25 -26 -28 -30 -2 -40 -41 -43 -45 -4 -52 -54 -56 -6 -58 -60 -7 -65 -9 -11 0
-23 -4 -45 -43 -41 -40 -2 -30 -28 -26 -25 -11 -9 -7 -6 -65 -60 -56 -58 -54 -52 0
-40 -41 -43 -45 -4 -23 -52 -54 -56 -6 -25 -58 -60 -7 -26 -65 -9 -28 -11 -30 -2 0
-40 -25 -6 -56 -54 -52 -23 -4 -45 -43 -41 -2 -30 -28 -26 -11 -9 -7 -65 -60 -58 0
-52 -54 -56 -6 -25 -40 -58 -60 -7 -26 -41 -65 -9 -28 -43 -11 -30 -45 -2 -4 -23 0
-52 -41 -26 -7 -60 -58 -40 -25 -6 -56 -54 -23 -4 -45 -43 -2 -30 -28 -11 -9 -65 0
-58 -60 -7 -26 -41 -52 -65 -9 -28 -43 -54 -11 -30 -45 -56 -2 -4 -6 -23 -25 -40 0
-58 -54 -43 -28 -9 -65 -52 -41 -26 -7 -60 -40 -25 -6 -56 -23 -4 -45 -2 -30 -11 0
-65 -9 -28 -43 -54 -58 -11 -30 -45 -56 -60 -2 -4 -6 -7 -23 -25 -26 -40 -41 -52 0
-11 -30 -45 -56 -60 -65 -2 -4 -6 -7 -9 -23 -25 -26 -28 -40 -41 -43 -52 -54 -58 0
-65 -60 -56 -45 -30 -11 -58 -54 -43 -28 -9 -52 -41 -26 -7 -40 -25 -6 -23 -4 -2 0
-2 -4 -6 -7 -10 -11 -23 -25 -26 -29 -30 -40 -41 -44 -45 -52 -55 -56 -59 -60 -66 0
-11 -10 -7 -6 -4 -2 -66 -60 -56 -45 -30 -59 -55 -44 -29 -52 -41 -26 -40 -25 -23 0
-2 -30 -29 -26 -25 -23 -11 -10 -7 -6 -4 -66 -60 -56 -45 -59 -55 -44 -52 -41 -40 0
-23 -25 -26 -29 -30 -2 -40 -41 -44 -45 -4 -52 -55 -56 -6 -59 -60 -7 -66 -10 -11 0
-23 -4 -45 -44 -41 -40 -2 -30 -29 -26 -25 -11 -10 -7 -6 -66 -60 -56 -59 -55 -52 0
-40 -41 -44 -45 -4 -23 -52 -55 -56 -6 -25 -59 -60 -7 -26 -66 -10 -29 -11 -30 -2 0
-40 -25 -6 -56 -55 -52 -23 -4 -45 -44 -41 -2 -30 -29 -26 -11 -10 -7 -66 -60 -59 0
-52 -55 -56 -6 -25 -40 -59 -60 -7 -26 -41 -66 -10 -29 -44 -11 -30 -45 -2 -4 -23 0
-52 -41 -26 -7 -60 -59 -40 -25 -6 -56 -55 -23 -4 -45 -44 -2 -30 -29 -11 -10 -66 0
-59 -60 -7 -26 -41 -52 -66 -10 -29 -44 -55 -11 -30 -45 -56 -2 -4 -6 -23 -25 -40 0
-59 -55 -44 -29 -10 -66 -52 -41 -26 -7 -60 -40 -25 -6 -56 -23 -4 -45 -2 -30 -11 0
-66 -10 -29 -44 -55 -59 -11 -30 -45 -56 -60 -2 -4 -6 -7 -23 -25 -26 -40 -41 -52 0
-11 -30 -45 -56 -60 -66 -2 -4 -6 -7 -10 -23 -25 -26 -29 -40 -41 -44 -52 -55 -59 0
-66 -60 -56 -45 -30 -11 -59 -55 -44 -29 -10 -52 -41 -26 -7 -40 -25 -6 -23 -4 -2 0
-2 -4 -6 -8 -9 -10 -23 -25 -27 -28 -29 -40 -42 -43 -44 -53 -54 -55 -61 -62 -64 0
-10 -9 -8 -6 -4 -2 -64 -62 -55 -44 -29 -61 -54 -43 -28 -53 -42 -27 -40 -25 -23 0
-2 -29 -28 -27 -25 -23 -10 -9 -8 -6 -4 -64 -62 -55 -44 -61 -54 -43 -53 -42 -40 0
-23 -25 -27 -28 -29 -2 -40 -42 -43 -44 -4 -53 -54 -55 -6 -61 -62 -8 -64 -9 -10 0
-23 -4 -44 -43 -42 -40 -2 -29 -28 -27 -25 -10 -9 -8 -6 -64 -62 -55 -61 -54 -53 0
-40 -42 -43 -44 -4 -23 -53 -54 -55 -6 -25 -61 -62 -8 -27 -64 -9 -28 -10 -29 -2 0
-40 -25 -6 -55 -54 -53 -23 -4 -44 -43 -42 -2 -29 -28 -27 -10 -9 -8 -64 -62 -61 0
-53 -54 -55 -6 -25 -40 -61 -62 -8 -27 -42 -64 -9 -28 -43 -10 -29 -44 -2 -4 -23 0
-53 -42 -27 -8 -62 -61 -40 -25 -6 -55 -54 -23 -4 -44 -43 -2 -29 -28 -10 -9 -64 0
-61 -62 -8 -27 -42 -53 -64 -9 -28 -43 -54 -10 -29 -44 -55 -2 -4 -6 -23 -25 -40 0
-61 -54 -43 -28 -9 -64 -53 -42 -27 -8 -62 -40 -25 -6 -55 -23 -4 -44 -2 -29 -10 0
-64 -9 -28 -43 -54 -61 -10 -29 -44 -55 -62 -2 -4 -6 -8 -23 -25 -27 -40 -42 -53 0
-10 -29 -44 -55 -62 -64 -2 -4 -6 -8 -9 -23 -25 -27 -28 -40 -42 -43 -53 -54 -61 0
-64 -62 -55 -44 -29 -10 -61 -54 -43 -28 -9 -53 -42 -27 -8 -40 -25 -6 -23 -4 -2 0
-2 -4 -6 -8 -9 -11 -23 -25 -27 -28 -30 -40 -42 -43 -45 -53 -54 -56 -61 -63 -65 0
-11 -9 -8 -6 -4 -2 -65 -63 -56 -45 -30 -61 -54 -43 -28 -53 -42 -27 -40 -25 -23 0
-2 -30 -28 -27 -25 -23 -11 -9 -8 -6 -4 -65 -63 -56 -45 -61 -54 -43 -53 -42 -40 0
-23 -25 -27 -28 -30 -2 -40 -42 -43 -45 -4 -53 -54 -56 -6 -61 -63 -8 -65 -9 -11 0
-23 -4 -45 -43 -42 -40 -2 -30 -28 -27 -25 -11 -9 -8 -6 -65 -63 -56 -61 -54 -53 0
-40 -42 -43 -45 -4 -23 -53 -54 -56 -6 -25 -61 -63 -8 -27 -65 -9 -28 -11 -30 -2 0
-40 -25 -6 -56 -54 -53 -23 -4 -45 -43 -42 -2 -30 -28 -27 -11 -9 -8 -65 -63 -61 0
-53 -54 -56 -6 -25 -40 -61 -63 -8 -27 -42 -65 -9 -28 -43 -11 -30 -45 -2 -4 -23 0
-53 -42 -27 -8 -63 -61 -40 -25 -6 -56 -54 -23 -4 -45 -43 -2 -30 -28 -11 -9 -65 0
-61 -63 -8 -27 -42 -53 -65 -9 -28 -43 -54 -11 -30 -45 -56 -2 -4 -6 -23 -25 -40 0
-61 -54 -43 -28 -9 -65 -53 -42 -27 -8 -63 -40 -25 -6 -56 -23 -4 -45 -2 -30 -11 0
-65 -9 -28 -43 -54 -61 -11 -30 -45 -56 -63 -2 -4 -6 -8 -23 -25 -27 -40 -42 -53 0
-11 -30 -45 -56 -63 -65 -2 -4 -6 -8 -9 -23 -25 -27 -28 -40 -42 -43 -53 -54 -61 0
-65 -63 -56 -45 -30 -11 -61 -54 -43 -28 -9 -53 -42 -27 -8 -40 -25 -6 -23 -4 -2 0
-2 -4 -6 -8 -10 -11 -23 -25 -27 -29 -30 -40 -42 -44 -45 -53 -55 -56 -62 -63 -66 0
-11 -10 -8 -6 -4 -2 -66 -63 -56 -45 -30 -62 -55 -44 -29 -53 -42 -27 -40 -25 -23 0
-2 -30 -29 -27 -25 -23 -11 -10 -8 -6 -4 -66 -63 -56 -45 -62 -55 -44 -53 -42 -40 0
-23 -25 -27 -29 -30 -2 -40 -42 -44 -45 -4 -53 -55 -56 -6 -62 -63 -8 -66 -10 -11 0
-23 -4 -45 -44 -42 -40 -2 -30 -29 -27 -25 -11 -10 -8 -6 -66 -63 -56 -62 -55 -53 0
-40 -42 -44 -45 -4 -23 -53 -55 -56 -6 -25 -62 -63 -8 -27 -66 -10 -29 -11 -30 -2 0
-40 -25 -6 -56 -55 -53 -23 -4 -45 -44 -42 -2 -30 -29 -27 -11 -10 -8 -66 -63 -62 0
-53 -55 -56 -6 -25 -40 -62 -63 -8 -27 -42 -66 -10 -29 -44 -11 -30 -45 -2 -4 -23 0
-53 -42 -27 -8 -63 -62 -40 -25 -6 -56 -55 -23 -4 -45 -44 -2 -30 -29 -11 -10 -66 0
-62 -63 -8 -27 -42 -53 -66 -10 -29 -44 -55 -11 -30 -45 -56 -2 -4 -6 -23 -25 -40 0
-62 -55 -44 -29 -10 -66 -53 -42 -27 -8 -63 -40 -25 -6 -56 -23 -4 -45 -2 -30 -11 0
-66 -10 -29 -44 -55 -62 -11 -30 -45 -56 -63 -2 -4 -6 -8 -23 -25 -27 -40 -42 -53 0
-11 -30 -45 -56 -63 -66 -2 -4 -6 -8 -10 -23 -25 -27 -29 -40 -42 -44 -53 -55 -62 0
-66 -63 -56 -45 -30 -11 -62 -55 -44 -29 -10 -53 -42 -27 -8 -40 -25 -6 -23 -4 -2 0
-2 -4 -6 -9 -10 -11 -23 -25 -28 -29 -30 -40 -43 -44 -45 -54 -55 -56 -64 -65 -66 0
-11 -10 -9 -6 -4 -2 -66 -65 -56 -45 -30 -64 -55 -44 -29 -54 -43 -28 -40 -25 -23 0
-2 -30 -29 -28 -25 -23 -11 -10 -9 -6 -4 -66 -65 -56 -45 -64 -55 -44 -54 -43 -40 0
-23 -25 -28 -29 -30 -2 -40 -43 -44 -45 -4 -54 -55 -56 -6 -64 -65 -9 -66 -10 -11 0
-23 -4 -45 -44 -43 -40 -2 -30 -29 -28 -25 -11 -10 -9 -6 -66 -65 -56 -64 -55 -54 0
-40 -43 -44 -45 -4 -23 -54 -55 -56 -6 -25 -64 -65 -9 -28 -66 -10 -29 -11 -30 -2 0
-40 -25 -6 -56 -55 -54 -23 -4 -45 -44 -43 -2 -30 -29 -28 -11 -10 -9 -66 -65 -64 0
-54 -55 -56 -6 -25 -40 -64 -65 -9 -28 -43 -66 -10 -29 -44 -11 -30 -45 -2 -4 -23 0
-54 -43 -28 -9 -65 -64 -40 -25 -6 -56 -55 -23 -4 -45 -44 -2 -30 -29 -11 -10 -66 0
-64 -65 -9 -28 -43 -54 -66 -10 -29 -44 -55 -11 -30 -45 -56 -2 -4 -6 -23 -25 -40 0
-64 -55 -44 -29 -10 -66 -54 -43 -28 -9 -65 -40 -25 -6 -56 -23 -4 -45 -2 -30 -11 0
-66 -10 -29 -44 -55 -64 -11 -30 -45 -56 -65 -2 -4 -6 -9 -23 -25 -28 -40 -43 -54 0
-11 -30 -45 -56 -65 -66 -2 -4 -6 -9 -10 -23 -25 -28 -29 -40 -43 -44 -54 -55 -64 0
-66 -65 -56 -45 -30 -11 -64 -55 -44 -29 -10 -54 -43 -28 -9 -40 -25 -6 -23 -4 -2 0
-2 -4 -7 -8 -9 -10 -23 -26 -27 -28 -29 -41 -42 -43 -44 -57 -58 -59 -61 -62 -64 0
-10 -9 -8 -7 -4 -2 -64 -62 -59 -44 -29 -61 -58 -43 -28 -57 -42 -27 -41 -26 -23 0
-2 -29 -28 -27 -26 -23 -10 -9 -8 -7 -4 -64 -62 -59 -44 -61 -58 -43 -57 -42 -41 0
-23 -26 -27 -28 -29 -2 -41 -42 -43 -44 -4 -57 -58 -59 -7 -61 -62 -8 -64 -9 -10 0
-23 -4 -44 -43 -42 -41 -2 -29 -28 -27 -26 -10 -9 -8 -7 -64 -62 -59 -61 -58 -57 0
-41 -42 -43 -44 -4 -23 -57 -58 -59 -7 -26 -61 -62 -8 -27 -64 -9 -28 -10 -29 -2 0
-41 -26 -7 -59 -58 -57 -23 -4 -44 -43 -42 -2 -29 -28 -27 -10 -9 -8 -64 -62 -61 0
-57 -58 -59 -7 -26 -41 -61 -62 -8 -27 -42 -64 -9 -28 -43 -10 -29 -44 -2 -4 -23 0
-57 -42 -27 -8 -62 -61 -41 -26 -7 -59 -58 -23 -4 -44 -43 -2 -29 -28 -10 -9 -64 0
-61 -62 -8 -27 -42 -57 -64 -9 -28 -43 -58 -10 -29 -44 -59 -2 -4 -7 -23 -26 -41 0
-61 -58 -43 -28 -9 -64 -57 -42 -27 -8 -62 -41 -26 -7 -59 -23 -4 -44 -2 -29 -10 0
-64 -9 -28 -43 -58 -61 -10 -29 -44 -59 -62 -2 -4 -7 -8 -23 -26 -27 -41 -42 -57 0
-10 -29 -44 -59 -62 -64 -2 -4 -7 -8 -9 -23 -26 -27 -28 -41 -42 -43 -57 -58 -61 0
-64 -62 -59 -44 -29 -10 -61 -58 -43 -28 -9 -57 -42 -27 -8 -41 -26 -7 -23 -4 -2 0
-2 -4 -7 -8 -9 -11 -23 -26 -27 -28 -30 -41 -42 -43 -45 -57 -58 -60 -61 -63 -65 0
-11 -9 -8 -7 -4 -2 -65 -63 -60 -45 -30 -61 -58 -43 -28 -57 -42 -27 -41 -26 -23 0
-2 -30 -28 -27 -26 -23 -11 -9 -8 -7 -4 -65 -63 -60 -45 -61 -58 -43 -57 -42 -41 0
-23 -26 -27 -28 -30 -2 -41 -42 -43 -45 -4 -57 -58 -60 -7 -61 -63 -8 -65 -9 -11 0
-23 -4 -45 -43 -42 -41 -2 -30 -28 -27 -26 -11 -9 -8 -7 -65 -63 -60 -61 -58 -57 0
-41 -42 -43 -45 -4 -23 -57 -58 -60 -7 -26 -61 -63 -8 -27 -65 -9 -28 -11 -30 -2 0
-41 -26 -7 -60 -58 -57 -23 -4 -45 -43 -42 -2 -30 -28 -27 -11 -9 -8 -65 -63 -61 0
-57 -58 -60 -7 -26 -41 -61 -63 -8 -27 -42 -65 -9 -28 -43 -11 -30 -45 -2 -4 -23 0
-57 -42 -27 -8 -63 -61 -41 -26 -7 -60 -58 -23 -4 -45 -43 -2 -30 -28 -11 -9 -65 0
-61 -63 -8 -27 -42 -57 -65 -9 -28 -43 -58 -11 -30 -45 -60 -2 -4 -7 -23 -26 -41 0
-61 -58 -43 -28 -9 -65 -57 -42 -27 -8 -63 -41 -26 -7 -60 -23 -4 -45 -2 -30 -11 0
-65 -9 -28 -43 -58 -61 -11 -30 -45 -60 -63 -2 -4 -7 -8 -23 -26 -27 -41 -42 -57 0
-11 -30 -45 -60 -63 -65 -2 -4 -7 -8 -9 -23 -26 -27 -28 -41 -42 -43 -57 -58 -61 0
-65 -63 -60 -45 -30 -11 -61 -58 -43 -28 -9 -57 -42 -27 -8 -41 -26 -7 -23 -4 -2 0
-2 -4 -7 -8 -10 -11 -23 -26 -27 -29 -30 -41 -42 -44 -45 -57 -59 -60 -62 -63 -66 0
-11 -10 -8 -7 -4 -2 -66 -63 -60 -45 -30 -62 -59 -44 -29 -57 -42 -27 -41 -26 -23 0
-2 -30 -29 -27 -26 -23 -11 -10 -8 -7 -4 -66 -63 -60 -45 -62 -59 -44 -57 -42 -41 0
-23 -26 -27 -29 -30 -2 -41 -42 -44 -45 -4 -57 -59 -60 -7 -62 -63 -8 -66 -10 -11 0
-23 -4 -45 -44 -42 -41 -2 -30 -29 -27 -26 -11 -10 -8 -7 -66 -63 -60 -62 -59 -57 0
-41 -42 -44 -45 -4 -23 -57 -59 -60 -7 -26 -62 -63 -8 -27 -66 -10 -29 -11 -30 -2 0
-41 -26 -7 -60 -59 -57 -23 -4 -45 -44 -42 -2 -30 -29 -27 -11 -10 -8 -66 -63 -62 0
-57 -59 -60 -7 -26 -41 -62 -63 -8 -27 -42 -66 -10 -29 -44 -11 -30 -45 -2 -4 -23 0
-57 -42 -27 -8 -63 -62 -41 -26 -7 -60 -59 -23 -4 -45 -44 -2 -30 -29 -11 -10 -66 0
-62 -63 -8 -27 -42 -57 -66 -10 -29 -44 -59 -11 -30 -45 -60 -2 -4 -7 -23 -26 -41 0
-62 -59 -44 -29 -10 -66 -57 -42 -27 -8 -63 -41 -26 -7 -60 -23 -4 -45 -2 -30 -11 0
-66 -10 -29 -44 -59 -62 -11 -30 -45 -60 -63 -2 -4 -7 -8 -23 -26 -27 -41 -42 -57 0
-11 -30 -45 -60 -63 -66 -2 -4 -7 -8 -10 -23 -26 -27 -29 -41 -42 -44 -57 -59 -62 0
-66 -63 -60 -45 -30 -11 -62 -59 -44 -29 -10 -57 -42 -27 -8 -41 -26 -7 -23 -4 -2 0
-2 -4 -7 -9 -10 -11 -23 -26 -28 -29 -30 -41 -43 -44 -45 -58 -59 -60 -64 -65 -66 0
-11 -10 -9 -7 -4 -2 -66 -65 -60 -45 -30 -64 -59 -44 -29 -58 -43 -28 -41 -26 -23 0
-2 -30 -29 -28 -26 -23 -11 -10 -9 -7 -4 -66 -65 -60 -45 -64 -59 -44 -58 -43 -41 0
-23 -26 -28 -29 -30 -2 -41 -43 -44 -45 -4 -58 -59 -60 -7 -64 -65 -9 -66 -10 -11 0
-23 -4 -45 -44 -43 -41 -2 -30 -29 -28 -26 -11 -10 -9 -7 -66 -65 -60 -64 -59 -58 0
-41 -43 -44 -45 -4 -23 -58 -59 -60 -7 -26 -64 -65 -9 -28 -66 -10 -29 -11 -30 -2 0
-41 -26 -7 -60 -59 -58 -23 -4 -45 -44 -43 -2 -30 -29 -28 -11 -10 -9 -66 -65 -64 0
-58 -59 -60 -7 -26 -41 -64 -65 -9 -28 -43 -66 -10 -29 -44 -11 -30 -45 -2 -4 -23 0
-58 -43 -28 -9 -65 -64 -41 -26 -7 -60 -59 -23 -4 -45 -44 -2 -30 -29 -11 -10 -66 0
-64 -65 -9 -28 -43 -58 -66 -10 -29 -44 -59 -11 -30 -45 -60 -2 -4 -7 -23 -26 -41 0
-64 -59 -44 -29 -10 -66 -58 -43 -28 -9 -65 -41 -26 -7 -60 -23 -4 -45 -2 -30 -11 0
-66 -10 -29 -44 -59 -64 -11 -30 -45 -60 -65 -2 -4 -7 -9 -23 -26 -28 -41 -43 -58 0
-11 -30 -45 -60 -65 -66 -2 -4 -7 -9 -10 -23 -26 -28 -29 -41 -43 -44 -58 -59 -64 0
-66 -65 -60 -45 -30 -11 -64 -59 -44 -29 -10 -58 -43 -28 -9 -41 -26 -7 -23 -4 -2 0
-2 -4 -8 -9 -10 -11 -23 -27 -28 -29 -30 -42 -43 -44 -45 -61 -62 -63 -64 -65 -66 0
-11 -10 -9 -8 -4 -2 -66 -65 -63 -45 -30 -64 -62 -44 -29 -61 -43 -28 -42 -27 -23 0
-2 -30 -29 -28 -27 -23 -11 -10 -9 -8 -4 -66 -65 -63 -45 -64 -62 -44 -61 -43 -42 0
-23 -27 -28 -29 -30 -2 -42 -43 -44 -45 -4 -61 -62 -63 -8 -64 -65 -9 -66 -10 -11 0
-23 -4 -45 -44 -43 -42 -2 -30 -29 -28 -27 -11 -10 -9 -8 -66 -65 -63 -64 -62 -61 0
-42 -43 -44 -45 -4 -23 -61 -62 -63 -8 -27 -64 -65 -9 -28 -66 -10 -29 -11 -30 -2 0
-42 -27 -8 -63 -62 -61 -23 -4 -45 -44 -43 -2 -30 -29 -28 -11 -10 -9 -66 -65 -64 0
-61 -62 -63 -8 -27 -42 -64 -65 -9 -28 -43 -66 -10 -29 -44 -11 -30 -45 -2 -4 -23 0
-61 -43 -28 -9 -65 -64 -42 -27 -8 -63 -62 -23 -4 -45 -44 -2 -30 -29 -11 -10 -66 0
-64 -65 -9 -28 -43 -61 -66 -10 -29 -44 -62 -11 -30 -45 -63 -2 -4 -8 -23 -27 -42 0
-64 -62 -44 -29 -10 -66 -61 -43 -28 -9 -65 -42 -27 -8 -63 -23 -4 -45 -2 -30 -11 0
-66 -10 -29 -44 -62 -64 -11 -30 -45 -63 -65 -2 -4 -8 -9 -23 -27 -28 -42 -43 -61 0
-11 -30 -45 -63 -65 -66 -2 -4 -8 -9 -10 -23 -27 -28 -29 -42 -43 -44 -61 -62 -64 0
-66 -65 -63 -45 -30 -11 -64 -62 -44 -29 -10 -61 -43 -28 -9 -42 -27 -8 -23 -4 -2 0
-2 -5 -6 -7 -8 -9 -24 -25 -26 -27 -28 -46 -47 -48 -49 -52 -53 -54 -57 -58 -61 0
-9 -8 -7 -6 -5 -2 -61 -58 -54 -49 -28 -57 -53 -48 -27 -52 -47 -26 -46 -25 -24 0
-2 -28 -27 -26 -25 -24 -9 -8 -7 -6 -5 -61 -58 -54 -49 -57 -53 -48 -52 -47 -46 0
-24 -25 -26 -27 -28 -2 -46 -47 -48 -49 -5 -52 -53 -54 -6 -57 -58 -7 -61 -8 -9 0
-24 -5 -49 -48 -47 -46 -2 -28 -27 -26 -25 -9 -8 -7 -6 -61 -58 -54 -57 -53 -52 0
-46 -47 -48 -49 -5 -24 -52 -53 -54 -6 -25 -57 -58 -7 -26 -61 -8 -27 -9 -28 -2 0
-46 -25 -6 -54 -53 -52 -24 -5 -49 -48 -47 -2 -28 -27 -26 -9 -8 -7 -61 -58 -57 0
-52 -53 -54 -6 -25 -46 -57 -58 -7 -26 -47 -61 -8 -27 -48 -9 -28 -49 -2 -5 -24 0
-52 -47 -26 -7 -58 -57 -46 -25 -6 -54 -53 -24 -5 -49 -48 -2 -28 -27 -9 -8 -61 0
-57 -58 -7 -26 -47 -52 -61 -8 -27 -48 -53 -9 -28 -49 -54 -2 -5 -6 -24 -25 -46 0
-57 -53 -48 -27 -8 -61 -52 -47 -26 -7 -58 -46 -25 -6 -54 -24 -5 -49 -2 -28 -9 0
-61 -8 -27 -48 -53 -57 -9 -28 -49 -54 -58 -2 -5 -6 -7 -24 -25 -26 -46 -47 -52 0
-9 -28 -49 -54 -58 -61 -2 -5 -6 -7 -8 -24 -25 -26 -27 -46 -47 -48 -52 -53 -57 0
-61 -58 -54 -49 -28 -9 -57 -53 -48 -27 -8 -52 -47 -26 -7 -46 -25 -6 -24 -5 -2 0
-2 -5 -6 -7 -8 -10 -24 -25 -26 -27 -29 -46 -47 -48 -50 -52 -53 -55 -57 -59 -62 0
-10 -8 -7 -6 -5 -2 -62 -59 -55 -50 -29 -57 -53 -48 -27 -52 -47 -26 -46 -25 -24 0
-2 -29 -27 -26 -25 -24 -10 -8 -7 -6 -5 -62 -59 -55 -50 -57 -53 -48 -52 -47 -46 0
-24 -25 -26 -27 -29 -2 -46 -47 -48 -50 -5 -52 -53 -55 -6 -57 -59 -7 -62 -8 -10 0
-24 -5 -50 -48 -47 -46 -2 -29 -27 -26 -25 -10 -8 -7 -6 -62 -59 -55 -57 -53 -52 0
-46 -47 -48 -50 -5 -24 -52 -53 -55 -6 -25 -57 -59 -7 -26 -62 -8 -27 -10 -29 -2 0
-46 -25 -6 -55 -53 -52 -24 -5 -50 -48 -47 -2 -29 -27 -26 -10 -8 -7 -62 -59 -57 0
-52 -53 -55 -6 -25 -46 -57 -59 -7 -26 -47 -62 -8 -27 -48 -10 -29 -50 -2 -5 -24 0
-52 -47 -26 -7 -59 -57 -46 -25 -6 -55 -53 -24 -5 -50 -48 -2 -29 -27 -10 -8 -62 0
-57 -59 -7 -26 -47 -52 -62 -8 -27 -48 -53 -10 -29 -50 -55 -2 -5 -6 -24 -25 -46 0
-57 -53 -48 -27 -8 -62 -52 -47 -26 -7 -59 -46 -25 -6 -55 -24 -5 -50 -2 -29 -10 0
-62 -8 -27 -48 -53 -57 -10 -29 -50 -55 -59 -2 -5 -6 -7 -24 -25 -26 -46 -47 -52 0
-10 -29 -50 -55 -59 -62 -2 -5 -6 -7 -8 -24 -25 -26 -27 -46 -47 -48 -52 -53 -57 0
-62 -59 -55 -50 -29 -10 -57 -53 -48 -27 -8 -52 -47 -26 -7 -46 -25 -6 -24 -5 -2 0
-2 -5 -6 -7 -8 -11 -24 -25 -26 -27 -30 -46 -47 -48 -51 -52 -53 -56 -57 -60 -63 0
-11 -8 -7 -6 -5 -2 -63 -60 -56 -51 -30 -57 -53 -48 -27 -52 -47 -26 -46 -25 -24 0
-2 -30 -27 -26 -25 -24 -11 -8 -7 -6 -5 -63 -60 -56 -51 -57 -53 -48 -52 -47 -46 0
-24 -25 -26 -27 -30 -2 -46 -47 -48 -51 -5 -52 -53 -56 -6 -57 -60 -7 -63 -8 -11 0
-24 -5 -51 -48 -47 -46 -2 -30 -27 -26 -25 -11 -8 -7 -6 -63 -60 -56 -57 -53 -52 0
-46 -47 -48 -51 -5 -24 -52 -53 -56 -6 -25 -57 -60 -7 -26 -63 -8 -27 -11 -30 -2 0
-46 -25 -6 -56 -53 -52 -24 -5 -51 -48 -47 -2 -30 -27 -26 -11 -8 -7 -63 -60 -57 0
-52 -53 -56 -6 -25 -46 -57 -60 -7 -26 -47 -63 -8 -27 -48 -11 -30 -51 -2 -5 -24 0
-52 -47 -26 -7 -60 -57 -46 -25 -6 -56 -53 -24 -5 -51 -48 -2 -30 -27 -11 -8 -63 0
-57 -60 -7 -26 -47 -52 -63 -8 -27 -48 -53 -11 -30 -51 -56 -2 -5 -6 -24 -25 -46 0
-57 -53 -48 -27 -8 -63 -52 -47 -26 -7 -60 -46 -25 -6 -56 -24 -5 -51 -2 -30 -11 0
-63 -8 -27 -48 -53 -57 -11 -30 -51 -56 -60 -2 -5 -6 -7 -24 -25 -26 -46 -47 -52 0
-11 -30 -51 -56 -60 -63 -2 -5 -6 -7 -8 -24 -25 -26 -27 -46 -47 -48 -52 -53 -57 0
-63 -60 -56 -51 -30 -11 -57 -53 -48 -27 -8 -52 -47 -26 -7 -46 -25 -6 -24 -5 -2 0
-2 -5 -6 -7 -9 -10 -24 -25 -26 -28 -29 -46 -47 -49 -50 -52 -54 -55 -58 -59 -64 0
-10 -9 -7 -6 -5 -2 -64 -59 -55 -50 -29 -58 -54 -49 -28 -52 -47 -26 -46 -25 -24 0
-2 -29 -28 -26 -25 -24 -10 -9 -7 -6 -5 -64 -59 -55 -50 -58 -54 -49 -52 -47 -46 0
-24 -25 -26 -28 -29 -2 -46 -47 -49 -50 -5 -52 -54 -55 -6 -58 -59 -7 -64 -9 -10 0
-24 -5 -50 -49 -47 -46 -2 -29 -28 -26 -25 -10 -9 -7 -6 -64 -59 -55 -58 -54 -52 0
-46 -47 -49 -50 -5 -24 -52 -54 -55 -6 -25 -58 -59 -7 -26 -64 -9 -28 -10 -29 -2 0
-46 -25 -6 -55 -54 -52 -24 -5 -50 -49 -47 -2 -29 -28 -26 -10 -9 -7 -64 -59 -58 0
-52 -54 -55 -6 -25 -46 -58 -59 -7 -26 -47 -64 -9 -28 -49 -10 -29 -50 -2 -5 -24 0
-52 -47 -26 -7 -59 -58 -46 -25 -6 -55 -54 -24 -5 -50 -49 -2 -29 -28 -10 -9 -64 0
-58 -59 -7 -26 -47 -52 -64 -9 -28 -49 -54 -10 -29 -50 -55 -2 -5 -6 -24 -25 -46 0
-58 -54 -49 -28 -9 -64 -52 -47 -26 -7 -59 -46 -25 -6 -55 -24 -5 -50 -2 -29 -10 0
-64 -9 -28 -49 -54 -58 -10 -29 -50 -55 -59 -2 -5 -6 -7 -24 -25 -26 -46 -47 -52 0
-10 -29 -50 -55 -59 -64 -2 -5 -6 -7 -9 -24 -25 -26 -28 -46 -47 -49 -52 -54 -58 0
-64 -59 -55 -50 -29 -10 -58 -54 -49 -28 -9 -52 -47 -26 -7 -46 -25 -6 -24 -5 -2 0
-2 -5 -6 -7 -9 -11 -24 -25 -26 -28 -30 -46 -47 -49 -51 -52 -54 -56 -58 -60 -65 0
-11 -9 -7 -6 -5 -2 -65 -60 -56 -51 -30 -58 -54 -49 -28 -52 -47 -26 -46 -25 -24 0
-2 -30 -28 -26 -25 -24 -11 -9 -7 -6 -5 -65 -60 -56 -51 -58 -54 -49 -52 -47 -46 0
-24 -25 -26 -28 -30 -2 -46 -47 -49 -51 -5 -52 -54 -56 -6 -58 -60 -7 -65 -9 -11 0
-24 -5 -51 -49 -47 -46 -2 -30 -28 -26 -25 -11 -9 -7 -6 -65 -60 -56 -58 -54 -52 0
-46 -47 -49 -51 -5 -24 -52 -54 -56 -6 -25 -58 -60 -7 -26 -65 -9 -28 -11 -30 -2 0
-46 -25 -6 -56 -54 -52 -24 -5 -51 -49 -47 -2 -30 -28 -26 -11 -9 -7 -65 -60 -58 0
-52 -54 -56 -6 -25 -46 -58 -60 -7 -26 -47 -65 -9 -28 -49 -11 -30 -51 -2 -5 -24 0
-52 -47 -26 -7 -60 -58 -46 -25 -6 -56 -54 -24 -5 -51 -49 -2 -30 -28 -11 -9 -65 0
-58 -60 -7 -26 -47 -52 -65 -9 -28 -49 -54 -11 -30 -51 -56 -2 -5 -6 -24 -25 -46 0
-58 -54 -49 -28 -9 -65 -52 -47 -26 -7 -60 -46 -25 -6 -56 -24 -5 -51 -2 -30 -11 0
-65 -9 -28 -49 -54 -58 -11 -30 -51 -56 -60 -2 -5 -6 -7 -24 -25 -26 -46 -47 -52 0
-11 -30 -51 -56 -60 -65 -2 -5 -6 -7 -9 -24 -25 -26 -28 -46 -47 -49 -52 -54 -58 0
-65 -60 -56 -51 -30 -11 -58 -54 -49 -28 -9 -52 -47 -26 -7 -46 -25 -6 -24 -5 -2 0
-2 -5 -6 -7 -10 -11 -24 -25 -26 -29 -30 -46 -47 -50 -51 -52 -55 -56 -59 -60 -66 0
-11 -10 -7 -6 -5 -2 -66 -60 -56 -51 -30 -59 -55 -50 -29 -52 -47 -26 -46 -25 -24 0
-2 -30 -29 -26 -25 -24 -11 -10 -7 -6 -5 -66 -60 -56 -51 -59 -55 -50 -52 -47 -46 0
-24 -25 -26 -29 -30 -2 -46 -47 -50 -51 -5 -52 -55 -56 -6 -59 -60 -7 -66 -10 -11 0
-24 -5 -51 -50 -47 -46 -2 -30 -29 -26 -25 -11 -10 -7 -6 -66 -60 -56 -59 -55 -52 0
-46 -47 -50 -51 -5 -24 -52 -55 -56 -6 -25 -59 -60 -7 -26 -66 -10 -29 -11 -30 -2 0
-46 -25 -6 -56 -55 -52 -24 -5 -51 -50 -47 -2 -30 -29 -26 -11 -10 -7 -66 -60 -59 0
-52 -55 -56 -6 -25 -46 -59 -60 -7 -26 -47 -66 -10 -29 -50 -11 -30 -51 -2 -5 -24 0
-52 -47 -26 -7 -60 -59 -46 -25 -6 -56 -55 -24 -5 -51 -50 -2 -30 -29 -11 -10 -66 0
-59 -60 -7 -26 -47 -52 -66 -10 -29 -50 -55 -11 -30 -51 -56 -2 -5 -6 -24 -25 -46 0
-59 -55 -50 -29 -10 -66 -52 -47 -26 -7 -60 -46 -25 -6 -56 -24 -5 -51 -2 -30 -11 0
-66 -10 -29 -50 -55 -59 -11 -30 -51 -56 -60 -2 -5 -6 -7 -24 -25 -26 -46 -47 -52 0
-11 -30 -51 -56 -60 -66 -2 -5 -6 -7 -10 -24 -25 -26 -29 -46 -47 -50 -52 -55 -59 0
-66 -60 -56 -51 -30 -11 -59 -55 -50 -29 -10 -52 -47 -26 -7 -46 -25 -6 -24 -5 -2 0
-2 -5 -6 -8 -9 -10 -24 -25 -27 -28 -29 -46 -48 -49 -50 -53 -54 -55 -61 -62 -64 0
-10 -9 -8 -6 -5 -2 -64 -62 -55 -50 -29 -61 -54 -49 -28 -53 -48 -27 -46 -25 -24 0
-2 -29 -28 -27 -25 -24 -10 -9 -8 -6 -5 -64 -62 -55 -50 -61 -54 -49 -53 -48 -46 0
-24 -25 -27 -28 -29 -2 -46 -48 -49 -50 -5 -53 -54 -55 -6 -61 -62 -8 -64 -9 -10 0
-24 -5 -50 -49 -48 -46 -2 -29 -28 -27 -25 -10 -9 -8 -6 -64 -62 -55 -61 -54 -53 0
-46 -48 -49 -50 -5 -24 -53 -54 -55 -6 -25 -61 -62 -8 -27 -64 -9 -28 -10 -29 -2 0
-46 -25 -6 -55 -54 -53 -24 -5 -50 -49 -48 -2 -29 -28 -27 -10 -9 -8 -64 -62 -61 0
-53 -54 -55 -6 -25 -46 -61 -62 -8 -27 -48 -64 -9 -28 -49 -10 -29 -50 -2 -5 -24 0
-53 -48 -27 -8 -62 -61 -46 -25 -6 -55 -54 -24 -5 -50 -49 -2 -29 -28 -10 -9 -64 0
-61 -62 -8 -27 -48 -53 -64 -9 -28 -49 -54 -10 -29 -50 -55 -2 -5 -6 -24 -25 -46 0
-61 -54 -49 -28 -9 -64 -53 -48 -27 -8 -62 -46 -25 -6 -55 -24 -5 -50 -2 -29 -10 0
-64 -9 -28 -49 -54 -61 -10 -29 -50 -55 -62 -2 -5 -6 -8 -24 -25 -27 -46 -48 -53 0
-10 -29 -50 -55 -62 -64 -2 -5 -6 -8 -9 -24 -25 -27 -28 -46 -48 -49 -53 -54 -61 0
-64 -62 -55 -50 -29 -10 -61 -54 -49 -28 -9 -53 -48 -27 -8 -46 -25 -6 -24 -5 -2 0
-2 -5 -6 -8 -9 -11 -24 -25 -27 -28 -30 -46 -48 -49 -51 -53 -54 -56 -61 -63 -65 0
-11 -9 -8 -6 -5 -2 -65 -63 -56 -51 -30 -61 -54 -49 -28 -53 -48 -27 -46 -25 -24 0
-2 -30 -28 -27 -25 -24 -11 -9 -8 -6 -5 -65 -63 -56 -51 -61 -54 -49 -53 -48 -46 0
-24 -25 -27 -28 -30 -2 -46 -48 -49 -51 -5 -53 -54 -56 -6 -61 -63 -8 -65 -9 -11 0
-24 -5 -51 -49 -48 -46 -2 -30 -28 -27 -25 -11 -9 -8 -6 -65 -63 -56 -61 -54 -53 0
-46 -48 -49 -51 -5 -24 -53 -54 -56 -6 -25 -61 -63 -8 -27 -65 -9 -28 -11 -30 -2 0
-46 -25 -6 -56 -54 -53 -24 -5 -51 -49 -48 -2 -30 -28 -27 -11 -9 -8 -65 -63 -61 0
-53 -54 -56 -6 -25 -46 -61 -63 -8 -27 -48 -65 -9 -28 -49 -11 -30 -51 -2 -5 -24 0
-53 -48 -27 -8 -63 -61 -46 -25 -6 -56 -54 -24 -5 -51 -49 -2 -30 -28 -11 -9 -65 0
-61 -63 -8 -27 -48 -53 -65 -9 -28 -49 -54 -11 -30 -51 -56 -2 -5 -6 -24 -25 -46 0
-61 -54 -49 -28 -9 -65 -53 -48 -27 -8 -63 -46 -25 -6 -56 -24 -5 -51 -2 -30 -11 0
-65 -9 -28 -49 -54 -61 -11 -30 -51 -56 -63 -2 -5 -6 -8 -24 -25 -27 -46 -48 -53 0
-11 -30 -51 -56 -63 -65 -2 -5 -6 -8 -9 -24 -25 -27 -28 -46 -48 -49 -53 -54 -61 0
-65 -63 -56 -51 -30 -11 -61 -54 -49 -28 -9 -53 -48 -27 -8 -46 -25 -6 -24 -5 -2 0
-2 -5 -6 -8 -10 -11 -24 -25 -27 -29 -30 -46 -48 -50 -51 -53 -55 -56 -62 -63 -66 0
-11 -10 -8 -6 -5 -2 -66 -63 -56 -51 -30 -62 -55 -50 -29 -53 -48 -27 -46 -25 -24 0
-2 -30 -29 -27 -25 -24 -11 -10 -8 -6 -5 -66 -63 -56 -51 -62 -55 -50 -53 -48 -46 0
-24 -25 -27 -29 -30 -2 -46 -48 -50 -51 -5 -53 -55 -56 -6 -62 -63 -8 -66 -10 -11 0
-24 -5 -51 -50 -48 -46 -2 -30 -29 -27 -25 -11 -10 -8 -6 -66 -63 -56 -62 -55 -53 0
-46 -48 -50 -51 -5 -24 -53 -55 -56 -6 -25 -62 -63 -8 -27 -66 -10 -29 -11 -30 -2 0
-46 -25 -6 -56 -55 -53 -24 -5 -51 -50 -48 -2 -30 -29 -27 -11 -10 -8 -66 -63 -62 0
-53 -55 -56 -6 -25 -46 -62 -63 -8 -27 -48 -66 -10 -29 -50 -11 -30 -51 -2 -5 -24 0
-53 -48 -27 -8 -63 -62 -46 -25 -6 -56 -55 -24 -5 -51 -50 -2 -30 -29 -11 -10 -66 0
-62 -63 -8 -27 -48 -53 -66 -10 -29 -50 -55 -11 -30 -51 -56 -2 -5 -6 -24 -25 -46 0
-62 -55 -50 -29 -10 -66 -53 -48 -27 -8 -63 -46 -25 -6 -56 -24 -5 -51 -2 -30 -11 0
-66 -10 -29 -50 -55 -62 -11 -30 -51 -56 -63 -2 -5 -6 -8 -24 -25 -27 -46 -48 -53 0
-11 -30 -51 -56 -63 -66 -2 -5 -6 -8 -10 -24 -25 -27 -29 -46 -48 -50 -53 -55 -62 0
-66 -63 -56 -51 -30 -11 -62 -55 -50 -29 -10 -53 -48 -27 -8 -46 -25 -6 -24 -5 -2 0
-2 -5 -6 -9 -10 -11 -24 -25 -28 -29 -30 -46 -49 -50 -51 -54 -55 -56 -64 -65 -66 0
-11 -10 -9 -6 -5 -2 -66 -65 -56 -51 -30 -64 -55 -50 -29 -54 -49 -28 -46 -25 -24 0
-2 -30 -29 -28 -25 -24 -11 -10 -9 -6 -5 -66 -65 -56 -51 -64 -55 -50 -54 -49 -46 0
-24 -25 -28 -29 -30 -2 -46 -49 -50 -51 -5 -54 -55 -56 -6 -64 -65 -9 -66 -10 -11 0
-24 -5 -51 -50 -49 -46 -2 -30 -29 -28 -25 -11 -10 -9 -6 -66 -65 -56 -64 -55 -54 0
-46 -49 -50 -51 -5 -24 -54 -55 -56 -6 -25 -64 -65 -9 -28 -66 -10 -29 -11 -30 -2 0
-46 -25 -6 -56 -55 -54 -24 -5 -51 -50 -49 -2 -30 -29 -28 -11 -10 -9 -66 -65 -64 0
-54 -55 -56 -6 -25 -46 -64 -65 -9 -28 -49 -66 -10 -29 -50 -11 -30 -51 -2 -5 -24 0
-54 -49 -28 -9 -65 -64 -46 -25 -6 -56 -55 -24 -5 -51 -50 -2 -30 -29 -11 -10 -66 0
-64 -65 -9 -28 -49 -54 -66 -10 -29 -50 -55 -11 -30 -51 -56 -2 -5 -6 -24 -25 -46 0
-64 -55 -50 -29 -10 -66 -54 -49 -28 -9 -65 -46 -25 -6 -56 -24 -5 -51 -2 -30 -11 0
-66 -10 -29 -50 -55 -64 -11 -30 -51 -56 -65 -2 -5 -6 -9 -24 -25 -28 -46 -49 -54 0
-11 -30 -51 -56 -65 -66 -2 -5 -6 -9 -10 -24 -25 -28 -29 -46 -49 -50 -54 -55 -64 0
-66 -65 -56 -51 -30 -11 -64 -55 -50 -29 -10 -54 -49 -28 -9 -46 -25 -6 -24 -5 -2 0
-2 -5 -7 -8 -9 -10 -24 -26 -27 -28 -29 -47 -48 -49 -50 -57 -58 -59 -61 -62 -64 0
-10 -9 -8 -7 -5 -2 -64 -62 -59 -50 -29 -61 -58 -49 -28 -57 -48 -27 -47 -26 -24 0
-2 -29 -28 -27 -26 -24 -10 -9 -8 -7 -5 -64 -62 -59 -50 -61 -58 -49 -57 -48 -47 0
-24 -26 -27 -28 -29 -2 -47 -48 -49 -50 -5 -57 -58 -59 -7 -61 -62 -8 -64 -9 -10 0
-24 -5 -50 -49 -48 -47 -2 -29 -28 -27 -26 -10 -9 -8 -7 -64 -62 -59 -61 -58 -57 0
-47 -48 -49 -50 -5 -24 -57 -58 -59 -7 -26 -61 -62 -8 -27 -64 -9 -28 -10 -29 -2 0
-47 -26 -7 -59 -58 -57 -24 -5 -50 -49 -48 -2 -29 -28 -27 -10 -9 -8 -64 -62 -61 0
-57 -58 -59 -7 -26 -47 -61 -62 -8 -27 -48 -64 -9 -28 -49 -10 -29 -50 -2 -5 -24 0
-57 -48 -27 -8 -62 -61 -47 -26 -7 -59 -58 -24 -5 -50 -49 -2 -29 -28 -10 -9 -64 0
-61 -62 -8 -27 -48 -57 -64 -9 -28 -49 -58 -10 -29 -50 -59 -2 -5 -7 -24 -26 -47 0
-61 -58 -49 -28 -9 -64 -57 -48 -27 -8 -62 -47 -26 -7 -59 -24 -5 -50 -2 -29 -10 0
-64 -9 -28 -49 -58 -61 -10 -29 -50 -59 -62 -2 -5 -7 -8 -24 -26 -27 -47 -48 -57 0
-10 -29 -50 -59 -62 -64 -2 -5 -7 -8 -9 -24 -26 -27 -28 -47 -48 -49 -57 -58 -61 0
-64 -62 -59 -50 -29 -10 -61 -58 -49 -28 -9 -57 -48 -27 -8 -47 -26 -7 -24 -5 -2 0
-2 -5 -7 -8 -9 -11 -24 -26 -27 -28 -30 -47 -48 -49 -51 -57 -58 -60 -61 -63 -65 0
-11 -9 -8 -7 -5 -2 -65 -63 -60 -51 -30 -61 -58 -49 -28 -57 -48 -27 -47 -26 -24 0
-2 -30 -28 -27 -26 -24 -11 -9 -8 -7 -5 -65 -63 -60 -51 -61 -58 -49 -57 -48 -47 0
-24 -26 -27 -28 -30 -2 -47 -48 -49 -51 -5 -57 -58 -60 -7 -61 -63 -8 -65 -9 -11 0
-24 -5 -51 -49 -48 -47 -2 -30 -28 -27 -26 -11 -9 -8 -7 -65 -63 -60 -61 -58 -57 0
-47 -48 -49 -51 -5 -24 -57 -58 -60 -7 -26 -61 -63 -8 -27 -65 -9 -28 -11 -30 -2 0
-47 -26 -7 -60 -58 -57 -24 -5 -51 -49 -48 -2 -30 -28 -27 -11 -9 -8 -65 -63 -61 0
-57 -58 -60 -7 -26 -47 -61 -63 -8 -27 -48 -65 -9 -28 -49 -11 -30 -51 -2 -5 -24 0
-57 -48 -27 -8 -63 -61 -47 -26 -7 -60 -58 -24 -5 -51 -49 -2 -30 -28 -11 -9 -65 0
-61 -63 -8 -27 -48 -57 -65 -9 -28 -49 -58 -11 -30 -51 -60 -2 -5 -7 -24 -26 -47 0
-61 -58 -49 -28 -9 -65 -57 -48 -27 -8 -63 -47 -26 -7 -60 -24 -5 -51 -2 -30 -11 0
-65 -9 -28 -49 -58 -61 -11 -30 -51 -60 -63 -2 -5 -7 -8 -24 -26 -27 -47 -48 -57 0
-11 -30 -51 -60 -63 -65 -2 -5 -7 -8 -9 -24 -26 -27 -28 -47 -48 -49 -57 -58 -61 0
-65 -63 -60 -51 -30 -11 -61 -58 -49 -28 -9 -57 -48 -27 -8 -47 -26 -7 -24 -5 -2 0
-2 -5 -7 -8 -10 -11 -24 -26 -27 -29 -30 -47 -48 -50 -51 -57 -59 -60 -62 -63 -66 0
-11 -10 -8 -7 -5 -2 -66 -63 -60 -51 -30 -62 -59 -50 -29 -57 -48 -27 -47 -26 -24 0
-2 -30 -29 -27 -26 -24 -11 -10 -8 -7 -5 -66 -63 -60 -51 -62 -59 -50 -57 -48 -47 0
-24 -26 -27 -29 -30 -2 -47 -48 -50 -51 -5 -57 -59 -60 -7 -62 -63 -8 -66 -10 -11 0
-24 -5 -51 -50 -48 -47 -2 -30 -29 -27 -26 -11 -10 -8 -7 -66 -63 -60 -62 -59 -57 0
-47 -48 -50 -51 -5 -24 -57 -59 -60 -7 -26 -62 -63 -8 -27 -66 -10 -29 -11 -30 -2 0
-47 -26 -7 -60 -59 -57 -24 -5 -51 -50 -48 -2 -30 -29 -27 -11 -10 -8 -66 -63 -62 0
-57 -59 -60 -7 -26 -47 -62 -63 -8 -27 -48 -66 -10 -29 -50 -11 -30 -51 -2 -5 -24 0
-57 -48 -27 -8 -63 -62 -47 -26 -7 -60 -59 -24 -5 -51 -50 -2 -30 -29 -11 -10 -66 0
-62 -63 -8 -27 -48 -57 -66 -10 -29 -50 -59 -11 -30 -51 -60 -2 -5 -7 -24 -26 -47 0
-62 -59 -50 -29 -10 -66 -57 -48 -27 -8 -63 -47 -26 -7 -60 -24 -5 -51 -2 -30 -11 0
-66 -10 -29 -50 -59 -62 -11 -30 -51 -60 -63 -2 -5 -7 -8 -24 -26 -27 -47 -48 -57 0
-11 -30 -51 -60 -63 -66 -2 -5 -7 -8 -10 -24 -26 -27 -29 -47 -48 -50 -57 -59 -62 0
-66 -63 -60 -51 -30 -11 -62 -59 -50 -29 -10 -57 -48 -27 -8 -47 -26 -7 -24 -5 -2 0
-2 -5 -7 -9 -10 -11 -24 -26 -28 -29 -30 -47 -49 -50 -51 -58 -59 -60 -64 -65 -66 0
-11 -10 -9 -7 -5 -2 -66 -65 -60 -51 -30 -64 -59 -50 -29 -58 -49 -28 -47 -26 -24 0
-2 -30 -29 -28 -26 -24 -11 -10 -9 -7 -5 -66 -65 -60 -51 -64 -59 -50 -58 -49 -47 0
-24 -26 -28 -29 -30 -2 -47 -49 -50 -51 -5 -58 -59 -60 -7 -64 -65 -9 -66 -10 -11 0
-24 -5 -51 -50 -49 -47 -2 -30 -29 -28 -26 -11 -10 -9 -7 -66 -65 -60 -64 -59 -58 0
-47 -49 -50 -51 -5 -24 -58 -59 -60 -7 -26 -64 -65 -9 -28 -66 -10 -29 -11 -30 -2 0
-47 -26 -7 -60 -59 -58 -24 -5 -51 -50 -49 -2 -30 -29 -28 -11 -10 -9 -66 -65 -64 0
-58 -59 -60 -7 -26 -47 -64 -65 -9 -28 -49 -66 -10 -29 -50 -11 -30 -51 -2 -5 -24 0
-58 -49 -28 -9 -65 -64 -47 -26 -7 -60 -59 -24 -5 -51 -50 -2 -30 -29 -11 -10 -66 0
-64 -65 -9 -28 -49 -58 -66 -10 -29 -50 -59 -11 -30 -51 -60 -2 -5 -7 -24 -26 -47 0
-64 -59 -50 -29 -10 -66 -58 -49 -28 -9 -65 -47 -26 -7 -60 -24 -5 -51 -2 -30 -11 0
-66 -10 -29 -50 -59 -64 -11 -30 -51 -60 -65 -2 -5 -7 -9 -24 -26 -28 -47 -49 -58 0
-11 -30 -51 -60 -65 -66 -2 -5 -7 -9 -10 -24 -26 -28 -29 -47 -49 -50 -58 -59 -64 0
-66 -65 -60 -51 -30 -11 -64 -59 -50 -29 -10 -58 -49 -28 -9 -47 -26 -7 -24 -5 -2 0
-2 -5 -8 -9 -10 -11 -24 -27 -28 -29 -30 -48 -49 -50 -51 -61 -62 -63 -64 -65 -66 0
-11 -10 -9 -8 -5 -2 -66 -65 -63 -51 -30 -64 -62 -50 -29 -61 -49 -28 -48 -27 -24 0
-2 -30 -29 -28 -27 -24 -11 -10 -9 -8 -5 -66 -65 -63 -51 -64 -62 -50 -61 -49 -48 0
-24 -27 -28 -29 -30 -2 -48 -49 -50 -51 -5 -61 -62 -63 -8 -64 -65 -9 -66 -10 -11 0
-24 -5 -51 -50 -49 -48 -2 -30 -29 -28 -27 -11 -10 -9 -8 -66 -65 -63 -64 -62 -61 0
-48 -49 -50 -51 -5 -24 -61 -62 -63 -8 -27 -64 -65 -9 -28 -66 -10 -29 -11 -30 -2 0
-48 -27 -8 -63 -62 -61 -24 -5 -51 -50 -49 -2 -30 -29 -28 -11 -10 -9 -66 -65 -64 0
-61 -62 -63 -8 -27 -48 -64 -65 -9 -28 -49 -66 -10 -29 -50 -11 -30 -51 -2 -5 -24 0
-61 -49 -28 -9 -65 -64 -48 -27 -8 -63 -62 -24 -5 -51 -50 -2 -30 -29 -11 -10 -66 0
-64 -65 -9 -28 -49 -61 -66 -10 -29 -50 -62 -11 -30 -51 -63 -2 -5 -8 -24 -27 -48 0
-64 -62 -50 -29 -10 -66 -61 -49 -28 -9 -65 -48 -27 -8 -63 -24 -5 -51 -2 -30 -11 0
-66 -10 -29 -50 -62 -64 -11 -30 -51 -63 -65 -2 -5 -8 -9 -24 -27 -28 -48 -49 -61 0
-11 -30 -51 -63 -65 -66 -2 -5 -8 -9 -10 -24 -27 -28 -29 -48 -49 -50 -61 -62 -64 0
-66 -65 -63 -51 -30 -11 -64 -62 -50 -29 -10 -61 -49 -28 -9 -48 -27 -8 -24 -5 -2 0
-2 -6 -7 -8 -9 -10 -25 -26 -27 -28 -29 -52 -53 -54 -55 -57 -58 -59 -61 -62 -64 0
-10 -9 -8 -7 -6 -2 -64 -62 -59 -55 -29 -61 -58 -54 -28 -57 -53 -27 -52 -26 -25 0
-2 -29 -28 -27 -26 -25 -10 -9 -8 -7 -6 -64 -62 -59 -55 -61 -58 -54 -57 -53 -52 0
-25 -26 -27 -28 -29 -2 -52 -53 -54 -55 -6 -57 -58 -59 -7 -61 -62 -8 -64 -9 -10 0
-25 -6 -55 -54 -53 -52 -2 -29 -28 -27 -26 -10 -9 -8 -7 -64 -62 -59 -61 -58 -57 0
-52 -53 -54 -55 -6 -25 -57 -58 -59 -7 -26 -61 -62 -8 -27 -64 -9 -28 -10 -29 -2 0
-52 -26 -7 -59 -58 -57 -25 -6 -55 -54 -53 -2 -29 -28 -27 -10 -9 -8 -64 -62 -61 0
-57 -58 -59 -7 -26 -52 -61 -62 -8 -27 -53 -64 -9 -28 -54 -10 -29 -55 -2 -6 -25 0
-57 -53 -27 -8 -62 -61 -52 -26 -7 -59 -58 -25 -6 -55 -54 -2 -29 -28 -10 -9 -64 0
-61 -62 -8 -27 -53 -57 -64 -9 -28 -54 -58 -10 -29 -55 -59 -2 -6 -7 -25 -26 -52 0
-61 -58 -54 -28 -9 -64 -57 -53 -27 -8 -62 -52 -26 -7 -59 -25 -6 -55 -2 -29 -10 0
-64 -9 -28 -54 -58 -61 -10 -29 -55 -59 -62 -2 -6 -7 -8 -25 -26 -27 -52 -53 -57 0
-10 -29 -55 -59 -62 -64 -2 -6 -7 -8 -9 -25 -26 -27 -28 -52 -53 -54 -57 -58 -61 0
-64 -62 -59 -55 -29 -10 -61 -58 -54 -28 -9 -57 -53 -27 -8 -52 -26 -7 -25 -6 -2 0
-2 -6 -7 -8 -9 -11 -25 -26 -27 -28 -30 -52 -53 -54 -56 -57 -58 -60 -61 -63 -65 0
-11 -9 -8 -7 -6 -2 -65 -63 -60 -56 -30 -61 -58 -54 -28 -57 -53 -27 -52 -26 -25 0
-2 -30 -28 -27 -26 -25 -11 -9 -8 -7 -6 -65 -63 -60 -56 -61 -58 -54 -57 -53 -52 0
-25 -26 -27 -28 -30 -2 -52 -53 -54 -56 -6 -57 -58 -60 -7 -61 -63 -8 -65 -9 -11 0
-25 -6 -56 -54 -53 -52 -2 -30 -28 -27 -26 -11 -9 -8 -7 -65 -63 -60 -61 -58 -57 0
-52 -53 -54 -56 -6 -25 -57 -58 -60 -7 -26 -61 -63 -8 -27 -65 -9 -28 -11 -30 -2 0
-52 -26 -7 -60 -58 -57 -25 -6 -56 -54 -53 -2 -30 -28 -27 -11 -9 -8 -65 -63 -61 0
-57 -58 -60 -7 -26 -52 -61 -63 -8 -27 -53 -65 -9 -28 -54 -11 -30 -56 -2 -6 -25 0
-57 -53 -27 -8 -63 -61 -52 -26 -7 -60 -58 -25 -6 -56 -54 -2 -30 -28 -11 -9 -65 0
-61 -63 -8 -27 -53 -57 -65 -9 -28 -54 -58 -11 -30 -56 -60 -2 -6 -7 -25 -26 -52 0
-61 -58 -54 -28 -9 -65 -57 -53 -27 -8 -63 -52 -26 -7 -60 -25 -6 -56 -2 -30 -11 0
-65 -9 -28 -54 -58 -61 -11 -30 -56 -60 -63 -2 -6 -7 -8 -25 -26 -27 -52 -53 -57 0
-11 -30 -56 -60 -63 -65 -2 -6 -7 -8 -9 -25 -26 -27 -28 -52 -53 -54 -57 -58 -61 0
-65 -63 -60 -56 -30 -11 -61 -58 -54 -28 -9 -57 -53 -27 -8 -52 -26 -7 -25 -6 -2 0
-2 -6 -7 -8 -10 -11 -25 -26 -27 -29 -30 -52 -53 -55 -56 -57 -59 -60 -62 -63 -66 0
-11 -10 -8 -7 -6 -2 -66 -63 -60 -56 -30 -62 -59 -55 -29 -57 -53 -27 -52 -26 -25 0
-2 -30 -29 -27 -26 -25 -11 -10 -8 -7 -6 -66 -63 -60 -56 -62 -59 -55 -57 -53 -52 0
-25 -26 -27 -29 -30 -2 -52 -53 -55 -56 -6 -57 -59 -60 -7 -62 -63 -8 -66 -10 -11 0
-25 -6 -56 -55 -53 -52 -2 -30 -29 -27 -26 -11 -10 -8 -7 -66 -63 -60 -62 -59 -57 0
-52 -53 -55 -56 -6 -25 -57 -59 -60 -7 -26 -62 -63 -8 -27 -66 -10 -29 -11 -30 -2 0
-52 -26 -7 -60 -59 -57 -25 -6 -56 -55 -53 -2 -30 -29 -27 -11 -10 -8 -66 -63 -62 0
-57 -59 -60 -7 -26 -52 -62 -63 -8 -27 -53 -66 -10 -29 -55 -11 -30 -56 -2 -6 -25 0
-57 -53 -27 -8 -63 -62 -52 -26 -7 -60 -59 -25 -6 -56 -55 -2 -30 -29 -11 -10 -66 0
-62 -63 -8 -27 -53 -57 -66 -10 -29 -55 -59 -11 -30 -56 -60 -2 -6 -7 -25 -26 -52 0
-62 -59 -55 -29 -10 -66 -57 -53 -27 -8 -63 -52 -26 -7 -60 -25 -6 -56 -2 -30 -11 0
-66 -10 -29 -55 -59 -62 -11 -30 -56 -60 -63 -2 -6 -7 -8 -25 -26 -27 -52 -53 -57 0
-11 -30 -56 -60 -63 -66 -2 -6 -7 -8 -10 -25 -26 -27 -29 -52 -53 -55 -57 -59 -62 0
-66 -63 -60 -56 -30 -11 -62 -59 -55 -29 -10 -57 -53 -27 -8 -52 -26 -7 -25 -6 -2 0
-2 -6 -7 -9 -10 -11 -25 -26 -28 -29 -30 -52 -54 -55 -56 -58 -59 -60 -64 -65 -66 0
-11 -10 -9 -7 -6 -2 -66 -65 -60 -56 -30 -64 -59 -55 -29 -58 -54 -28 -52 -26 -25 0
-2 -30 -29 -28 -26 -25 -11 -10 -9 -7 -6 -66 -65 -60 -56 -64 -59 -55 -58 -54 -52 0
-25 -26 -28 -29 -30 -2 -52 -54 -55 -56 -6 -58 -59 -60 -7 -64 -65 -9 -66 -10 -11 0
-25 -6 -56 -55 -54 -52 -2 -30 -29 -28 -26 -11 -10 -9 -7 -66 -65 -60 -64 -59 -58 0
-52 -54 -55 -56 -6 -25 -58 -59 -60 -7 -26 -64 -65 -9 -28 -66 -10 -29 -11 -30 -2 0
-52 -26 -7 -60 -59 -58 -25 -6 -56 -55 -54 -2 -30 -29 -28 -11 -10 -9 -66 -65 -64 0
-58 -59 -60 -7 -26 -52 -64 -65 -9 -28 -54 -66 -10 -29 -55 -11 -30 -56 -2 -6 -25 0
-58 -54 -28 -9 -65 -64 -52 -26 -7 -60 -59 -25 -6 -56 -55 -2 -30 -29 -11 -10 -66 0
-64 -65 -9 -28 -54 -58 -66 -10 -29 -55 -59 -11 -30 -56 -60 -2 -6 -7 -25 -26 -52 0
-64 -59 -55 -29 -10 -66 -58 -54 -28 -9 -65 -52 -26 -7 -60 -25 -6 -56 -2 -30 -11 0
-66 -10 -29 -55 -59 -64 -11 -30 -56 -60 -65 -2 -6 -7 -9 -25 -26 -28 -52 -54 -58 0
-11 -30 -56 -60 -65 -66 -2 -6 -7 -9 -10 -25 -26 -28 -29 -52 -54 -55 -58 -59 -64 0
-66 -65 -60 -56 -30 -11 -64 -59 -55 -29 -10 -58 -54 -28 -9 -52 -26 -7 -25 -6 -2 0
-2 -6 -8 -9 -10 -11 -25 -27 -28 -29 -30 -53 -54 -55 -56 -61 -62 -63 -64 -65 -66 0
-11 -10 -9 -8 -6 -2 -66 -65 -63 -56 -30 -64 -62 -55 -29 -61 -54 -28 -53 -27 -25 0
-2 -30 -29 -28 -27 -25 -11 -10 -9 -8 -6 -66 -65 -63 -56 -64 -62 -55 -61 -54 -53 0
-25 -27 -28 -29 -30 -2 -53 -54 -55 -56 -6 -61 -62 -63 -8 -64 -65 -9 -66 -10 -11 0
-25 -6 -56 -55 -54 -53 -2 -30 -29 -28 -27 -11 -10 -9 -8 -66 -65 -63 -64 -62 -61 0
-53 -54 -55 -56 -6 -25 -61 -62 -63 -8 -27 -64 -65 -9 -28 -66 -10 -29 -11 -30 -2 0
-53 -27 -8 -63 -62 -61 -25 -6 -56 -55 -54 -2 -30 -29 -28 -11 -10 -9 -66 -65 -64 0
-61 -62 -63 -8 -27 -53 -64 -65 -9 -28 -54 -66 -10 -29 -55 -11 -30 -56 -2 -6 -25 0
-61 -54 -28 -9 -65 -64 -53 -27 -8 -63 -62 -25 -6 -56 -55 -2 -30 -29 -11 -10 -66 0
-64 -65 -9 -28 -54 -61 -66 -10 -29 -55 -62 -11 -30 -56 -63 -2 -6 -8 -25 -27 -53 0
-64 -62 -55 -29 -10 -66 -61 -54 -28 -9 -65 -53 -27 -8 -63 -25 -6 -56 -2 -30 -11 0
-66 -10 -29 -55 -62 -64 -11 -30 -56 -63 -65 -2 -6 -8 -9 -25 -27 -28 -53 -54 -61 0
-11 -30 -56 -63 -65 -66 -2 -6 -8 -9 -10 -25 -27 -28 -29 -53 -54 -55 -61 -62 -64 0
-66 -65 -63 -56 -30 -11 -64 -62 -55 -29 -10 -61 -54 -28 -9 -53 -27 -8 -25 -6 -2 0
-2 -7 -8 -9 -10 -11 -26 -27 -28 -29 -30 -57 -58 -59 -60 -61 -62 -63 -64 -65 -66 0
-11 -10 -9 -8 -7 -2 -66 -65 -63 -60 -30 -64 -62 -59 -29 -61 -58 -28 -57 -27 -26 0
-2 -30 -29 -28 -27 -26 -11 -10 -9 -8 -7 -66 -65 -63 -60 -64 -62 -59 -61 -58 -57 0
-26 -27 -28 -29 -30 -2 -57 -58 -59 -60 -7 -61 -62 -63 -8 -64 -65 -9 -66 -10 -11 0
-26 -7 -60 -59 -58 -57 -2 -30 -29 -28 -27 -11 -10 -9 -8 -66 -65 -63 -64 -62 -61 0
-57 -58 -59 -60 -7 -26 -61 -62 -63 -8 -27 -64 -65 -9 -28 -66 -10 -29 -11 -30 -2 0
-57 -27 -8 -63 -62 -61 -26 -7 -60 -59 -58 -2 -30 -29 -28 -11 -10 -9 -66 -65 -64 0
-61 -62 -63 -8 -27 -57 -64 -65 -9 -28 -58 -66 -10 -29 -59 -11 -30 -60 -2 -7 -26 0
-61 -58 -28 -9 -65 -64 -57 -27 -8 -63 -62 -26 -7 -60 -59 -2 -30 -29 -11 -10 -66 0
-64 -65 -9 -28 -58 -61 -66 -10 -29 -59 -62 -11 -30 -60 -63 -2 -7 -8 -26 -27 -57 0
-64 -62 -59 -29 -10 -66 -61 -58 -28 -9 -65 -57 -27 -8 -63 -26 -7 -60 -2 -30 -11 0
-66 -10 -29 -59 -62 -64 -11 -30 -60 -63 -65 -2 -7 -8 -9 -26 -27 -28 -57 -58 -61 0
-11 -30 -60 -63 -65 -66 -2 -7 -8 -9 -10 -26 -27 -28 -29 -57 -58 -59 -61 -62 -64 0
-66 -65 -63 -60 -30 -11 -64 -62 -59 -29 -10 -61 -58 -28 -9 -57 -27 -8 -26 -7 -2 0
-3 -4 -5 -6 -7 -8 -31 -32 -33 -34 -35 -39 -40 -41 -42 -46 -47 -48 -52 -53 -57 0
-8 -7 -6 -5 -4 -3 -57 -53 -48 -42 -35 -52 -47 -41 -34 -46 -40 -33 -39 -32 -31 0
-3 -35 -34 -33 -32 -31 -8 -7 -6 -5 -4 -57 -53 -48 -42 -52 -47 -41 -46 -40 -39 0
-31 -32 -33 -34 -35 -3 -39 -40 -41 -42 -4 -46 -47 -48 -5 -52 -53 -6 -57 -7 -8 0
-31 -4 -42 -41 -40 -39 -3 -35 -34 -33 -32 -8 -7 -6 -5 -57 -53 -48 -52 -47 -46 0
-39 -40 -41 -42 -4 -31 -46 -47 -48 -5 -32 -52 -53 -6 -33 -57 -7 -34 -8 -35 -3 0
-39 -32 -5 -48 -47 -46 -31 -4 -42 -41 -40 -3 -35 -34 -33 -8 -7 -6 -57 -53 -52 0
-46 -47 -48 -5 -32 -39 -52 -53 -6 -33 -40 -57 -7 -34 -41 -8 -35 -42 -3 -4 -31 0
-46 -40 -33 -6 -53 -52 -39 -32 -5 -48 -47 -31 -4 -42 -41 -3 -35 -34 -8 -7 -57 0
-52 -53 -6 -33 -40 -46 -57 -7 -34 -41 -47 -8 -35 -42 -48 -3 -4 -5 -31 -32 -39 0
-52 -47 -41 -34 -7 -57 -46 -40 -33 -6 -53 -39 -32 -5 -48 -31 -4 -42 -3 -35 -8 0
-57 -7 -34 -41 -47 -52 -8 -35 -42 -48 -53 -3 -4 -5 -6 -31 -32 -33 -39 -40 -46 0
-8 -35 -42 -48 -53 -57 -3 -4 -5 -6 -7 -31 -32 -33 -34 -39 -40 -41 -46 -47 -52 0
-57 -53 -48 -42 -35 -8 -52 -47 -41 -34 -7 -46 -40 -33 -6 -39 -32 -5 -31 -4 -3 0
-3 -4 -5 -6 -7 -9 -31 -32 -33 -34 -36 -39 -40 -41 -43 -46 -47 -49 -52 -54 -58 0
-9 -7 -6 -5 -4 -3 -58 -54 -49 -43 -36 -52 -47 -41 -34 -46 -40 -33 -39 -32 -31 0
-3 -36 -34 -33 -32 -31 -9 -7 -6 -5 -4 -58 -54 -49 -43 -52 -47 -41 -46 -40 -39 0
-31 -32 -33 -34 -36 -3 -39 -40 -41 -43 -4 -46 -47 -49 -5 -52 -54 -6 -58 -7 -9 0
-31 -4 -43 -41 -40 -39 -3 -36 -34 -33 -32 -9 -7 -6 -5 -58 -54 -49 -52 -47 -46 0
-39 -40 -41 -43 -4 -31 -46 -47 -49 -5 -32 -52 -54 -6 -33 -58 -7 -34 -9 -36 -3 0
-39 -32 -5 -49 -47 -46 -31 -4 -43 -41 -40 -3 -36 -34 -33 -9 -7 -6 -58 -54 -52 0
-46 -47 -49 -5 -32 -39 -52 -54 -6 -33 -40 -58 -7 -34 -41 -9 -36 -43 -3 -4 -31 0
-46 -40 -33 -6 -54 -52 -39 -32 -5 -49 -47 -31 -4 -43 -41 -3 -36 -34 -9 -7 -58 0
-52 -54 -6 -33 -40 -46 -58 -7 -34 -41 -47 -9 -36 -43 -49 -3 -4 -5 -31 -32 -39 0
-52 -47 -41 -34 -7 -58 -46 -40 -33 -6 -54 -39 -32 -5 -49 -31 -4 -43 -3 -36 -9 0
-58 -7 -34 -41 -47 -52 -9 -36 -43 -49 -54 -3 -4 -5 -6 -31 -32 -33 -39 -40 -46 0
-9 -36 -43 -49 -54 -58 -3 -4 -5 -6 -7 -31 -32 -33 -34 -39 -40 -41 -46 -47 -52 0
-58 -54 -49 -43 -36 -9 -52 -47 -41 -34 -7 -46 -40 -33 -6 -39 -32 -5 -31 -4 -3 0
-3 -4 -5 -6 -7 -10 -31 -32 -33 -34 -37 -39 -40 -41 -44 -46 -47 -50 -52 -55 -59 0
-10 -7 -6 -5 -4 -3 -59 -55 -50 -44 -37 -52 -47 -41 -34 -46 -40 -33 -39 -32 -31 0
-3 -37 -34 -33 -32 -31 -10 -7 -6 -5 -4 -59 -55 -50 -44 -52 -47 -41 -46 -40 -39 0
-31 -32 -33 -34 -37 -3 -39 -40 -41 -44 -4 -46 -47 -50 -5 -52 -55 -6 -59 -7 -10 0
-31 -4 -44 -41 -40 -39 -3 -37 -34 -33 -32 -10 -7 -6 -5 -59 -55 -50 -52 -47 -46 0
-39 -40 -41 -44 -4 -31 -46 -47 -50 -5 -32 -52 -55 -6 -33 -59 -7 -34 -10 -37 -3 0
-39 -32 -5 -50 -47 -46 -31 -4 -44 -41 -40 -3 -37 -34 -33 -10 -7 -6 -59 -55 -52 0
-46 -47 -50 -5 -32 -39 -52 -55 -6 -33 -40 -59 -7 -34 -41 -10 -37 -44 -3 -4 -31 0
-46 -40 -33 -6 -55 -52 -39 -32 -5 -50 -47 -31 -4 -44 -41 -3 -37 -34 -10 -7 -59 0
-52 -55 -6 -33 -40 -46 -59 -7 -34 -41 -47 -10 -37 -44 -50 -3 -4 -5 -31 -32 -39 0
-52 -47 -41 -34 -7 -59 -46 -40 -33 -6 -55 -39 -32 -5 -50 -31 -4 -44 -3 -37 -10 0
-59 -7 -34 -41 -47 -52 -10 -37 -44 -50 -55 -3 -4 -5 -6 -31 -32 -33 -39 -40 -46 0
-10 -37 -44 -50 -55 -59 -3 -4 -5 -6 -7 -31 -32 -33 -34 -39 -40 -41 -46 -47 -52 0
-59 -55 -50 -44 -37 -10 -52 -47 -41 -34 -7 -46 -40 -33 -6 -39 -32 -5 -31 -4 -3 0
-3 -4 -5 -6 -7 -11 -31 -32 -33 -34 -38 -39 -40 -41 -45 -46 -47 -51 -52 -56 -60 0
-11 -7 -6 -5 -4 -3 -60 -56 -51 -45 -38 -52 -47 -41 -34 -46 -40 -33 -39 -32 -31 0
-3 -38 -34 -33 -32 -31 -11 -7 -6 -5 -4 -60 -56 -51 -45 -52 -47 -41 -46 -40 -39 0
-31 -32 -33 -34 -38 -3 -39 -40 -41 -45 -4 -46 -47 -51 -5 -52 -56 -6 -60 -7 -11 0
-31 -4 -45 -41 -40 -39 -3 -38 -34 -33 -32 -11 -7 -6 -5 -60 -56 -51 -52 -47 -46 0
-39 -40 -41 -45 -4 -31 -46 -47 -51 -5 -32 -52 -56 -6 -33 -60 -7 -34 -11 -38 -3 0
-39 -32 -5 -51 -47 -46 -31 -4 -45 -41 -40 -3 -38 -34 -33 -11 -7 -6 -60 -56 -52 0
-46 -47 -51 -5 -32 -39 -52 -56 -6 -33 -40 -60 -7 -34 -41 -11 -38 -45 -3 -4 -31 0
-46 -40 -33 -6 -56 -52 -39 -32 -5 -51 -47 -31 -4 -45 -41 -3 -38 -34 -11 -7 -60 0
-52 -56 -6 -33 -40 -46 -60 -7 -34 -41 -47 -11 -38 -45 -51 -3 -4 -5 -31 -32 -39 0
-52 -47 -41 -34 -7 -60 -46 -40 -33 -6 -56 -39 -32 -5 -51 -31 -4 -45 -3 -38 -11 0
-60 -7 -34 -41 -47 -52 -11 -38 -45 -51 -56 -3 -4 -5 -6 -31 -32 -33 -39 -40 -46 0
-11 -38 -45 -51 -56 -60 -3 -4 -5 -6 -7 -31 -32 -33 -34 -39 -40 -41 -46 -47 -52 0
-60 -56 -51 -45 -38 -11 -52 -47 -41 -34 -7 -46 -40 -33 -6 -39 -32 -5 -31 -4 -3 0
-3 -4 -5 -6 -8 -9 -31 -32 -33 -35 -36 -39 -40 -42 -43 -46 -48 -49 -53 -54 -61 0
-9 -8 -6 -5 -4 -3 -61 -54 -49 -43 -36 -53 -48 -42 -35 -46 -40 -33 -39 -32 -31 0
-3 -36 -35 -33 -32 -31 -9 -8 -6 -5 -4 -61 -54 -49 -43 -53 -48 -42 -46 -40 -39 0
-31 -32 -33 -35 -36 -3 -39 -40 -42 -43 -4 -46 -48 -49 -5 -53 -54 -6 -61 -8 -9 0
-31 -4 -43 -42 -40 -39 -3 -36 -35 -33 -32 -9 -8 -6 -5 -61 -54 -49 -53 -48 -46 0
-39 -40 -42 -43 -4 -31 -46 -48 -49 -5 -32 -53 -54 -6 -33 -61 -8 -35 -9 -36 -3 0
-39 -32 -5 -49 -48 -46 -31 -4 -43 -42 -40 -3 -36 -35 -33 -9 -8 -6 -61 -54 -53 0
-46 -48 -49 -5 -32 -39 -53 -54 -6 -33 -40 -61 -8 -35 -42 -9 -36 -43 -3 -4 -31 0
-46 -40 -33 -6 -54 -53 -39 -32 -5 -49 -48 -31 -4 -43 -42 -3 -36 -35 -9 -8 -61 0
-53 -54 -6 -33 -40 -46 -61 -8 -35 -42 -48 -9 -36 -43 -49 -3 -4 -5 -31 -32 -39 0
-53 -48 -42 -35 -8 -61 -46 -40 -33 -6 -54 -39 -32 -5 -49 -31 -4 -43 -3 -36 -9 0
-61 -8 -35 -42 -48 -53 -9 -36 -43 -49 -54 -3 -4 -5 -6 -31 -32 -33 -39 -40 -46 0
-9 -36 -43 -49 -54 -61 -3 -4 -5 -6 -8 -31 -32 -33 -35 -39 -40 -42 -46 -48 -53 0
-61 -54 -49 -43 -36 -9 -53 -48 -42 -35 -8 -46 -40 -33 -6 -39 -32 -5 -31 -4 -3 0
-3 -4 -5 -6 -8 -10 -31 -32 -33 -35 -37 -39 -40 -42 -44 -46 -48 -50 -53 -55 -62 0
-10 -8 -6 -5 -4 -3 -62 -55 -50 -44 -37 -53 -48 -42 -35 -46 -40 -33 -39 -32 -31 0
-3 -37 -35 -33 -32 -31 -10 -8 -6 -5 -4 -62 -55 -50 -44 -53 -48 -42 -46 -40 -39 0
-31 -32 -33 -35 -37 -3 -39 -40 -42 -44 -4 -46 -48 -50 -5 -53 -55 -6 -62 -8 -10 0
-31 -4 -44 -42 -40 -39 -3 -37 -35 -33 -32 -10 -8 -6 -5 -62 -55 -50 -53 -48 -46 0
-39 -40 -42 -44 -4 -31 -46 -48 -50 -5 -32 -53 -55 -6 -33 -62 -8 -35 -10 -37 -3 0
-39 -32 -5 -50 -48 -46 -31 -4 -44 -42 -40 -3 -37 -35 -33 -10 -8 -6 -62 -55 -53 0
-46 -48 -50 -5 -32 -39 -53 -55 -6 -33 -40 -62 -8 -35 -42 -10 -37 -44 -3 -4 -31 0
-46 -40 -33 -6 -55 -53 -39 -32 -5 -50 -48 -31 -4 -44 -42 -3 -37 -35 -10 -8 -62 0
-53 -55 -6 -33 -40 -46 -62 -8 -35 -42 -48 -10 -37 -44 -50 -3 -4 -5 -31 -32 -39 0
-53 -48 -42 -35 -8 -62 -46 -40 -33 -6 -55 -39 -32 -5 -50 -31 -4 -44 -3 -37 -10 0
-62 -8 -35 -42 -48 -53 -10 -37 -44 -50 -55 -3 -4 -5 -6 -31 -32 -33 -39 -40 -46 0
-10 -37 -44 -50 -55 -62 -3 -4 -5 -6 -8 -31 -32 -33 -35 -39 -40 -42 -46 -48 -53 0
-62 -55 -50 -44 -37 -10 -53 -48 -42 -35 -8 -46 -40 -33 -6 -39 -32 -5 -31 -4 -3 0
-3 -4 -5 -6 -8 -11 -31 -32 -33 -35 -38 -39 -40 -42 -45 -46 -48 -51 -53 -56 -63 0
-11 -8 -6 -5 -4 -3 -63 -56 -51 -45 -38 -53 -48 -42 -35 -46 -40 -33 -39 -32 -31 0
-3 -38 -35 -33 -32 -31 -11 -8 -6 -5 -4 -63 -56 -51 -45 -53 -48 -42 -46 -40 -39 0
-31 -32 -33 -35 -38 -3 -39 -40 -42 -45 -4 -46 -48 -51 -5 -53 -56 -6 -63 -8 -11 0
-31 -4 -45 -42 -40 -39 -3 -38 -35 -33 -32 -11 -8 -6 -5 -63 -56 -51 -53 -48 -46 0
-39 -40 -42 -45 -4 -31 -46 -48 -51 -5 -32 -53 -56 -6 -33 -63 -8 -35 -11 -38 -3 0
-39 -32 -5 -51 -48 -46 -31 -4 -45 -42 -40 -3 -38 -35 -33 -11 -8 -6 -63 -56 -53 0
-46 -48 -51 -5 -32 -39 -53 -56 -6 -33 -40 -63 -8 -35 -42 -11 -38 -45 -3 -4 -31 0
-46 -40 -33 -6 -56 -53 -39 -32 -5 -51 -48 -31 -4 -45 -42 -3 -38 -35 -11 -8 -63 0
-53 -56 -6 -33 -40 -46 -63 -8 -35 -42 -48 -11 -38 -45 -51 -3 -4 -5 -31 -32 -39 0
-53 -48 -42 -35 -8 -63 -46 -40 -33 -6 -56 -39 -32 -5 -51 -31 -4 -45 -3 -38 -11 0
-63 -8 -35 -42 -48 -53 -11 -38 -45 -51 -56 -3 -4 -5 -6 -31 -32 -33 -39 -40 -46 0
-11 -38 -45 -51 -56 -63 -3 -4 -5 -6 -8 -31 -32 -33 -35 -39 -40 -42 -46 -48 -53 0
-63 -56 -51 -45 -38 -11 -53 -48 -42 -35 -8 -46 -40 -33 -6 -39 -32 -5 -31 -4 -3 0
-3 -4 -5 -6 -9 -10 -31 -32 -33 -36 -37 -39 -40 -43 -44 -46 -49 -50 -54 -55 -64 0
-10 -9 -6 -5 -4 -3 -64 -55 -50 -44 -37 -54 -49 -43 -36 -46 -40 -33 -39 -32 -31 0
-3 -37 -36 -33 -32 -31 -10 -9 -6 -5 -4 -64 -55 -50 -44 -54 -49 -43 -46 -40 -39 0
-31 -32 -33 -36 -37 -3 -39 -40 -43 -44 -4 -46 -49 -50 -5 -54 -55 -6 -64 -9 -10 0
-31 -4 -44 -43 -40 -39 -3 -37 -36 -33 -32 -10 -9 -6 -5 -64 -55 -50 -54 -49 -46 0
-39 -40 -43 -44 -4 -31 -46 -49 -50 -5 -32 -54 -55 -6 -33 -64 -9 -36 -10 -37 -3 0
-39 -32 -5 -50 -49 -46 -31 -4 -44 -43 -40 -3 -37 -36 -33 -10 -9 -6 -64 -55 -54 0
-46 -49 -50 -5 -32 -39 -54 -55 -6 -33 -40 -64 -9 -36 -43 -10 -37 -44 -3 -4 -31 0
-46 -40 -33 -6 -55 -54 -39 -32 -5 -50 -49 -31 -4 -44 -43 -3 -37 -36 -10 -9 -64 0
-54 -55 -6 -33 -40 -46 -64 -9 -36 -43 -49 -10 -37 -44 -50 -3 -4 -5 -31 -32 -39 0
-54 -49 -43 -36 -9 -64 -46 -40 -33 -6 -55 -39 -32 -5 -50 -31 -4 -44 -3 -37 -10 0
-64 -9 -36 -43 -49 -54 -10 -37 -44 -50 -55 -3 -4 -5 -6 -31 -32 -33 -39 -40 -46 0
-10 -37 -44 -50 -55 -64 -3 -4 -5 -6 -9 -31 -32 -33 -36 -39 -40 -43 -46 -49 -54 0
-64 -55 -50 -44 -37 -10 -54 -49 -43 -36 -9 -46 -40 -33 -6 -39 -32 -5 -31 -4 -3 0
-3 -4 -5 -6 -9 -11 -31 -32 -33 -36 -38 -39 -40 -43 -45 -46 -49 -51 -54 -56 -65 0
-11 -9 -6 -5 -4 -3 -65 -56 -51 -45 -38 -54 -49 -43 -36 -46 -40 -33 -39 -32 -31 0
-3 -38 -36 -33 -32 -31 -11 -9 -6 -5 -4 -65 -56 -51 -45 -54 -49 -43 -46 -40 -39 0
-31 -32 -33 -36 -38 -3 -39 -40 -43 -45 -4 -46 -49 -51 -5 -54 -56 -6 -65 -9 -11 0
-31 -4 -45 -43 -40 -39 -3 -38 -36 -33 -32 -11 -9 -6 -5 -65 -56 -51 -54 -49 -46 0
-39 -40 -43 -45 -4 -31 -46 -49 -51 -5 -32 -54 -56 -6 -33 -65 -9 -36 -11 -38 -3 0
-39 -32 -5 -51 -49 -46 -31 -4 -45 -43 -40 -3 -38 -36 -33 -11 -9 -6 -65 -56 -54 0
-46 -49 -51 -5 -32 -39 -54 -56 -6 -33 -40 -65 -9 -36 -43 -11 -38 -45 -3 -4 -31 0
-46 -40 -33 -6 -56 -54 -39 -32 -5 -51 -49 -31 -4 -45 -43 -3 -38 -36 -11 -9 -65 0
-54 -56 -6 -33 -40 -46 -65 -9 -36 -43 -49 -11 -38 -45 -51 -3 -4 -5 -31 -32 -39 0
-54 -49 -43 -36 -9 -65 -46 -40 -33 -6 -56 -39 -32 -5 -51 -31 -4 -45 -3 -38 -11 0
-65 -9 -36 -43 -49 -54 -11 -38 -45 -51 -56 -3 -4 -5 -6 -31 -32 -33 -39 -40 -46 0
-11 -38 -45 -51 -56 -65 -3 -4 -5 -6 -9 -31 -32 -33 -36 -39 -40 -43 -46 -49 -54 0
-65 -56 -51 -45 -38 -11 -54 -49 -43 -36 -9 -46 -40 -33 -6 -39 -32 -5 -31 -4 -3 0
-3 -4 -5 -6 -10 -11 -31 -32 -33 -37 -38 -39 -40 -44 -45 -46 -50 -51 -55 -56 -66 0
-11 -10 -6 -5 -4 -3 -66 -56 -51 -45 -38 -55 -50 -44 -37 -46 -40 -33 -39 -32 -31 0
-3 -38 -37 -33 -32 -31 -11 -10 -6 -5 -4 -66 -56 -51 -45 -55 -50 -44 -46 -40 -39 0
-31 -32 -33 -37 -38 -3 -39 -40 -44 -45 -4 -46 -50 -51 -5 -55 -56 -6 -66 -10 -11 0
-31 -4 -45 -44 -40 -39 -3 -38 -37 -33 -32 -11 -10 -6 -5 -66 -56 -51 -55 -50 -46 0
-39 -40 -44 -45 -4 -31 -46 -50 -51 -5 -32 -55 -56 -6 -33 -66 -10 -37 -11 -38 -3 0
-39 -32 -5 -51 -50 -46 -31 -4 -45 -44 -40 -3 -38 -37 -33 -11 -10 -6 -66 -56 -55 0
-46 -50 -51 -5 -32 -39 -55 -56 -6 -33 -40 -66 -10 -37 -44 -11 -38 -45 -3 -4 -31 0
-46 -40 -33 -6 -56 -55 -39 -32 -5 -51 -50 -31 -4 -45 -44 -3 -38 -37 -11 -10 -66 0
-55 -56 -6 -33 -40 -46 -66 -10 -37 -44 -50 -11 -38 -45 -51 -3 -4 -5 -31 -32 -39 0
-55 -50 -44 -37 -10 -66 -46 -40 -33 -6 -56 -39 -32 -5 -51 -31 -4 -45 -3 -38 -11 0
-66 -10 -37 -44 -50 -55 -11 -38 -45 -51 -56 -3 -4 -5 -6 -31 -32 -33 -39 -40 -46 0
-11 -38 -45 -51 -56 -66 -3 -4 -5 -6 -10 -31 -32 -33 -37 -39 -40 -44 -46 -50 -55 0
-66 -56 -51 -45 -38 -11 -55 -50 -44 -37 -10 -46 -40 -33 -6 -39 -32 -5 -31 -4 -3 0
-3 -4 -5 -7 -8 -9 -31 -32 -34 -35 -36 -39 -41 -42 -43 -47 -48 -49 -57 -58 -61 0
-9 -8 -7 -5 -4 -3 -61 -58 -49 -43 -36 -57 -48 -42 -35 -47 -41 -34 -39 -32 -31 0
-3 -36 -35 -34 -32 -31 -9 -8 -7 -5 -4 -61 -58 -49 -43 -57 -48 -42 -47 -41 -39 0
-31 -32 -34 -35 -36 -3 -39 -41 -42 -43 -4 -47 -48 -49 -5 -57 -58 -7 -61 -8 -9 0
-31 -4 -43 -42 -41 -39 -3 -36 -35 -34 -32 -9 -8 -7 -5 -61 -58 -49 -57 -48 -47 0
-39 -41 -42 -43 -4 -31 -47 -48 -49 -5 -32 -57 -58 -7 -34 -61 -8 -35 -9 -36 -3 0
-39 -32 -5 -49 -48 -47 -31 -4 -43 -42 -41 -3 -36 -35 -34 -9 -8 -7 -61 -58 -57 0
-47 -48 -49 -5 -32 -39 -57 -58 -7 -34 -41 -61 -8 -35 -42 -9 -36 -43 -3 -4 -31 0
-47 -41 -34 -7 -58 -57 -39 -32 -5 -49 -48 -31 -4 -43 -42 -3 -36 -35 -9 -8 -61 0
-57 -58 -7 -34 -41 -47 -61 -8 -35 -42 -48 -9 -36 -43 -49 -3 -4 -5 -31 -32 -39 0
-57 -48 -42 -35 -8 -61 -47 -41 -34 -7 -58 -39 -32 -5 -49 -31 -4 -43 -3 -36 -9 0
-61 -8 -35 -42 -48 -57 -9 -36 -43 -49 -58 -3 -4 -5 -7 -31 -32 -34 -39 -41 -47 0
-9 -36 -43 -49 -58 -61 -3 -4 -5 -7 -8 -31 -32 -34 -35 -39 -41 -42 -47 -48 -57 0
-61 -58 -49 -43 -36 -9 -57 -48 -42 -35 -8 -47 -41 -34 -7 -39 -32 -5 -31 -4 -3 0
-3 -4 -5 -7 -8 -10 -31 -32 -34 -35 -37 -39 -41 -42 -44 -47 -48 -50 -57 -59 -62 0
-10 -8 -7 -5 -4 -3 -62 -59 -50 -44 -37 -57 -48 -42 -35 -47 -41 -34 -39 -32 -31 0
-3 -37 -35 -34 -32 -31 -10 -8 -7 -5 -4 -62 -59 -50 -44 -57 -48 -42 -47 -41 -39 0
-31 -32 -34 -35 -37 -3 -39 -41 -42 -44 -4 -47 -48 -50 -5 -57 -59 -7 -62 -8 -10 0
-31 -4 -44 -42 -41 -39 -3 -37 -35 -34 -32 -10 -8 -7 -5 -62 -59 -50 -57 -48 -47 0
-39 -41 -42 -44 -4 -31 -47 -48 -50 -5 -32 -57 -59 -7 -34 -62 -8 -35 -10 -37 -3 0
-39 -32 -5 -50 -48 -47 -31 -4 -44 -42 -41 -3 -37 -35 -34 -10 -8 -7 -62 -59 -57 0
-47 -48 -50 -5 -32 -39 -57 -59 -7 -34 -41 -62 -8 -35 -42 -10 -37 -44 -3 -4 -31 0
-47 -41 -34 -7 -59 -57 -39 -32 -5 -50 -48 -31 -4 -44 -42 -3 -37 -35 -10 -8 -62 0
-57 -59 -7 -34 -41 -47 -62 -8 -35 -42 -48 -10 -37 -44 -50 -3 -4 -5 -31 -32 -39 0
-57 -48 -42 -35 -8 -62 -47 -41 -34 -7 -59 -39 -32 -5 -50 -31 -4 -44 -3 -37 -10 0
-62 -8 -35 -42 -48 -57 -10 -37 -44 -50 -59 -3 -4 -5 -7 -31 -32 -34 -39 -41 -47 0
-10 -37 -44 -50 -59 -62 -3 -4 -5 -7 -8 -31 -32 -34 -35 -39 -41 -42 -47 -48 -57 0
-62 -59 -50 -44 -37 -10 -57 -48 -42 -35 -8 -47 -41 -34 -7 -39 -32 -5 -31 -4 -3 0
-3 -4 -5 -7 -8 -11 -31 -32 -34 -35 -38 -39 -41 -42 -45 -47 -48 -51 -57 -60 -63 0
-11 -8 -7 -5 -4 -3 -63 -60 -51 -45 -38 -57 -48 -42 -35 -47 -41 -34 -39 -32 -31 0
-3 -38 -35 -34 -32 -31 -11 -8 -7 -5 -4 -63 -60 -51 -45 -57 -48 -42 -47 -41 -39 0
-31 -32 -34 -35 -38 -3 -39 -41 -42 -45 -4 -47 -48 -51 -5 -57 -60 -7 -63 -8 -11 0
-31 -4 -45 -42 -41 -39 -3 -38 -35 -34 -32 -11 -8 -7 -5 -63 -60 -51 -57 -48 -47 0
-39 -41 -42 -45 -4 -31 -47 -48 -51 -5 -32 -57 -60 -7 -34 -63 -8 -35 -11 -38 -3 0
-39 -32 -5 -51 -48 -47 -31 -4 -45 -42 -41 -3 -38 -35 -34 -11 -8 -7 -63 -60 -57 0
-47 -48 -51 -5 -32 -39 -57 -60 -7 -34 -41 -63 -8 -35 -42 -11 -38 -45 -3 -4 -31 0
-47 -41 -34 -7 -60 -57 -39 -32 -5 -51 -48 -31 -4 -45 -42 -3 -38 -35 -11 -8 -63 0
-57 -60 -7 -34 -41 -47 -63 -8 -35 -42 -48 -11 -38 -45 -51 -3 -4 -5 -31 -32 -39 0
-57 -48 -42 -35 -8 -63 -47 -41 -34 -7 -60 -39 -32 -5 -51 -31 -4 -45 -3 -38 -11 0
-63 -8 -35 -42 -48 -57 -11 -38 -45 -51 -60 -3 -4 -5 -7 -31 -32 -34 -39 -41 -47 0
-11 -38 -45 -51 -60 -63 -3 -4 -5 -7 -8 -31 -32 -34 -35 -39 -41 -42 -47 -48 -57 0
-63 -60 -51 -45 -38 -11 -57 -48 -42 -35 -8 -47 -41 -34 -7 -39 -32 -5 -31 -4 -3 0
-3 -4 -5 -7 -9 -10 -31 -32 -34 -36 -37 -39 -41 -43 -44 -47 -49 -50 -58 -59 -64 0
-10 -9 -7 -5 -4 -3 -64 -59 -50 -44 -37 -58 -49 -43 -36 -47 -41 -34 -39 -32 -31 0
-3 -37 -36 -34 -32 -31 -10 -9 -7 -5 -4 -64 -59 -50 -44 -58 -49 -43 -47 -41 -39 0
-31 -32 -34 -36 -37 -3 -39 -41 -43 -44 -4 -47 -49 -50 -5 -58 -59 -7 -64 -9 -10 0
-31 -4 -44 -43 -41 -39 -3 -37 -36 -34 -32 -10 -9 -7 -5 -64 -59 -50 -58 -49 -47 0
-39 -41 -43 -44 -4 -31 -47 -49 -50 -5 -32 -58 -59 -7 -34 -64 -9 -36 -10 -37 -3 0
-39 -32 -5 -50 -49 -47 -31 -4 -44 -43 -41 -3 -37 -36 -34 -10 -9 -7 -64 -59 -58 0
-47 -49 -50 -5 -32 -39 -58 -59 -7 -34 -41 -64 -9 -36 -43 -10 -37 -44 -3 -4 -31 0
-47 -41 -34 -7 -59 -58 -39 -32 -5 -50 -49 -31 -4 -44 -43 -3 -37 -36 -10 -9 -64 0
-58 -59 -7 -34 -41 -47 -64 -9 -36 -43 -49 -10 -37 -44 -50 -3 -4 -5 -31 -32 -39 0
-58 -49 -43 -36 -9 -64 -47 -41 -34 -7 -59 -39 -32 -5 -50 -31 -4 -44 -3 -37 -10 0
-64 -9 -36 -43 -49 -58 -10 -37 -44 -50 -59 -3 -4 -5 -7 -31 -32 -34 -39 -41 -47 0
-10 -37 -44 -50 -59 -64 -3 -4 -5 -7 -9 -31 -32 -34 -36 -39 -41 -43 -47 -49 -58 0
-64 -59 -50 -44 -37 -10 -58 -49 -43 -36 -9 -47 -41 -34 -7 -39 -32 -5 -31 -4 -3 0
-3 -4 -5 -7 -9 -11 -31 -32 -34 -36 -38 -39 -41 -43 -45 -47 -49 -51 -58 -60 -65 0
-11 -9 -7 -5 -4 -3 -65 -60 -51 -45 -38 -58 -49 -43 -36 -47 -41 -34 -39 -32 -31 0
-3 -38 -36 -34 -32 -31 -11 -9 -7 -5 -4 -65 -60 -51 -45 -58 -49 -43 -47 -41 -39 0
-31 -32 -34 -36 -38 -3 -39 -41 -43 -45 -4 -47 -49 -51 -5 -58 -60 -7 -65 -9 -11 0
-31 -4 -45 -43 -41 -39 -3 -38 -36 -34 -32 -11 -9 -7 -5 -65 -60 -51 -58 -49 -47 0
-39 -41 -43 -45 -4 -31 -47 -49 -51 -5 -32 -58 -60 -7 -34 -65 -9 -36 -11 -38 -3 0
-39 -32 -5 -51 -49 -47 -31 -4 -45 -43 -41 -3 -38 -36 -34 -11 -9 -7 -65 -60 -58 0
-47 -49 -51 -5 -32 -39 -58 -60 -7 -34 -41 -65 -9 -36 -43 -11 -38 -45 -3 -4 -31 0
-47 -41 -34 -7 -60 -58 -39 -32 -5 -51 -49 -31 -4 -45 -43 -3 -38 -36 -11 -9 -65 0
-58 -60 -7 -34 -41 -47 -65 -9 -36 -43 -49 -11 -38 -45 -51 -3 -4 -5 -31 -32 -39 0
-58 -49 -43 -36 -9 -65 -47 -41 -34 -7 -60 -39 -32 -5 -51 -31 -4 -45 -3 -38 -11 0
-65 -9 -36 -43 -49 -58 -11 -38 -45 -51 -60 -3 -4 -5 -7 -31 -32 -34 -39 -41 -47 0
-11 -38 -45 -51 -60 -65 -3 -4 -5 -7 -9 -31 -32 -34 -36 -39 -41 -43 -47 -49 -58 0
-65 -60 -51 -45 -38 -11 -58 -49 -43 -36 -9 -47 -41 -34 -7 -39 -32 -5 -31 -4 -3 0
-3 -4 -5 -7 -10 -11 -31 -32 -34 -37 -38 -39 -41 -44 -45 -47 -50 -51 -59 -60 -66 0
-11 -10 -7 -5 -4 -3 -66 -60 -51 -45 -38 -59 -50 -44 -37 -47 -41 -34 -39 -32 -31 0
-3 -38 -37 -34 -32 -31 -11 -10 -7 -5 -4 -66 -60 -51 -45 -59 -50 -44 -47 -41 -39 0
-31 -32 -34 -37 -38 -3 -39 -41 -44 -45 -4 -47 -50 -51 -5 -59 -60 -7 -66 -10 -11 0
-31 -4 -45 -44 -41 -39 -3 -38 -37 -34 -32 -11 -10 -7 -5 -66 -60 -51 -59 -50 -47 0
-39 -41 -44 -45 -4 -31 -47 -50 -51 -5 -32 -59 -60 -7 -34 -66 -10 -37 -11 -38 -3 0
-39 -32 -5 -51 -50 -47 -31 -4 -45 -44 -41 -3 -38 -37 -34 -11 -10 -7 -66 -60 -59 0
-47 -50 -51 -5 -32 -39 -59 -60 -7 -34 -41 -66 -10 -37 -44 -11 -38 -45 -3 -4 -31 0
-47 -41 -34 -7 -60 -59 -39 -32 -5 -51 -50 -31 -4 -45 -44 -3 -38 -37 -11 -10 -66 0
-59 -60 -7 -34 -41 -47 -66 -10 -37 -44 -50 -11 -38 -45 -51 -3 -4 -5 -31 -32 -39 0
-59 -50 -44 -37 -10 -66 -47 -41 -34 -7 -60 -39 -32 -5 -51 -31 -4 -45 -3 -38 -11 0
-66 -10 -37 -44 -50 -59 -11 -38 -45 -51 -60 -3 -4 -5 -7 -31 -32 -34 -39 -41 -47 0
-11 -38 -45 -51 -60 -66 -3 -4 -5 -7 -10 -31 -32 -34 -37 -39 -41 -44 -47 -50 -59 0
-66 -60 -51 -45 -38 -11 -59 -50 -44 -37 -10 -47 -41 -34 -7 -39 -32 -5 -31 -4 -3 0
-3 -4 -5 -8 -9 -10 -31 -32 -35 -36 -37 -39 -42 -43 -44 -48 -49 -50 -61 -62 -64 0
-10 -9 -8 -5 -4 -3 -64 -62 -50 -44 -37 -61 -49 -43 -36 -48 -42 -35 -39 -32 -31 0
-3 -37 -36 -35 -32 -31 -10 -9 -8 -5 -4 -64 -62 -50 -44 -61 -49 -43 -48 -42 -39 0
-31 -32 -35 -36 -37 -3 -39 -42 -43 -44 -4 -48 -49 -50 -5 -61 -62 -8 -64 -9 -10 0
-31 -4 -44 -43 -42 -39 -3 -37 -36 -35 -32 -10 -9 -8 -5 -64 -62 -50 -61 -49 -48 0
-39 -42 -43 -44 -4 -31 -48 -49 -50 -5 -32 -61 -62 -8 -35 -64 -9 -36 -10 -37 -3 0
-39 -32 -5 -50 -49 -48 -31 -4 -44 -43 -42 -3 -37 -36 -35 -10 -9 -8 -64 -62 -61 0
-48 -49 -50 -5 -32 -39 -61 -62 -8 -35 -42 -64 -9 -36 -43 -10 -37 -44 -3 -4 -31 0
-48 -42 -35 -8 -62 -61 -39 -32 -5 -50 -49 -31 -4 -44 -43 -3 -37 -36 -10 -9 -64 0
-61 -62 -8 -35 -42 -48 -64 -9 -36 -43 -49 -10 -37 -44 -50 -3 -4 -5 -31 -32 -39 0
-61 -49 -43 -36 -9 -64 -48 -42 -35 -8 -62 -39 -32 -5 -50 -31 -4 -44 -3 -37 -10 0
-64 -9 -36 -43 -49 -61 -10 -37 -44 -50 -62 -3 -4 -5 -8 -31 -32 -35 -39 -42 -48 0
-10 -37 -44 -50 -62 -64 -3 -4 -5 -8 -9 -31 -32 -35 -36 -39 -42 -43 -48 -49 -61 0
-64 -62 -50 -44 -37 -10 -61 -49 -43 -36 -9 -48 -42 -35 -8 -39 -32 -5 -31 -4 -3 0
-3 -4 -5 -8 -9 -11 -31 -32 -35 -36 -38 -39 -42 -43 -45 -48 -49 -51 -61 -63 -65 0
-11 -9 -8 -5 -4 -3 -65 -63 -51 -45 -38 -61 -49 -43 -36 -48 -42 -35 -39 -32 -31 0
-3 -38 -36 -35 -32 -31 -11 -9 -8 -5 -4 -65 -63 -51 -45 -61 -49 -43 -48 -42 -39 0
-31 -32 -35 -36 -38 -3 -39 -42 -43 -45 -4 -48 -49 -51 -5 -61 -63 -8 -65 -9 -11 0
-31 -4 -45 -43 -42 -39 -3 -38 -36 -35 -32 -11 -9 -8 -5 -65 -63 -51 -61 -49 -48 0
-39 -42 -43 -45 -4 -31 -48 -49 -51 -5 -32 -61 -63 -8 -35 -65 -9 -36 -11 -38 -3 0
-39 -32 -5 -51 -49 -48 -31 -4 -45 -43 -42 -3 -38 -36 -35 -11 -9 -8 -65 -63 -61 0
-48 -49 -51 -5 -32 -39 -61 -63 -8 -35 -42 -65 -9 -36 -43 -11 -38 -45 -3 -4 -31 0
-48 -42 -35 -8 -63 -61 -39 -32 -5 -51 -49 -31 -4 -45 -43 -3 -38 -36 -11 -9 -65 0
-61 -63 -8 -35 -42 -48 -65 -9 -36 -43 -49 -11 -38 -45 -51 -3 -4 -5 -31 -32 -39 0
-61 -49 -43 -36 -9 -65 -48 -42 -35 -8 -63 -39 -32 -5 -51 -31 -4 -45 -3 -38 -11 0
-65 -9 -36 -43 -49 -61 -11 -38 -45 -51 -63 -3 -4 -5 -8 -31 -32 -35 -39 -42 -48 0
-11 -38 -45 -51 -63 -65 -3 -4 -5 -8 -9 -31 -32 -35 -36 -39 -42 -43 -48 -49 -61 0
-65 -63 -51 -45 -38 -11 -61 -49 -43 -36 -9 -48 -42 -35 -8 -39 -32 -5 -31 -4 -3 0
-3 -4 -5 -8 -10 -11 -31 -32 -35 -37 -38 -39 -42 -44 -45 -48 -50 -51 -62 -63 -66 0
-11 -10 -8 -5 -4 -3 -66 -63 -51 -45 -38 -62 -50 -44 -37 -48 -42 -35 -39 -32 -31 0
-3 -38 -37 -35 -32 -31 -11 -10 -8 -5 -4 -66 -63 -51 -45 -62 -50 -44 -48 -42 -39 0
-31 -32 -35 -37 -38 -3 -39 -42 -44 -45 -4 -48 -50 -51 -5 -62 -63 -8 -66 -10 -11 0
-31 -4 -45 -44 -42 -39 -3 -38 -37 -35 -32 -11 -10 -8 -5 -66 -63 -51 -62 -50 -48 0
-39 -42 -44 -45 -4 -31 -48 -50 -51 -5 -32 -62 -63 -8 -35 -66 -10 -37 -11 -38 -3 0
-39 -32 -5 -51 -50 -48 -31 -4 -45 -44 -42 -3 -38 -37 -35 -11 -10 -8 -66 -63 -62 0
-48 -50 -51 -5 -32 -39 -62 -63 -8 -35 -42 -66 -10 -37 -44 -11 -38 -45 -3 -4 -31 0
-48 -42 -35 -8 -63 -62 -39 -32 -5 -51 -50 -31 -4 -45 -44 -3 -38 -37 -11 -10 -66 0
-62 -63 -8 -35 -42 -48 -66 -10 -37 -44 -50 -11 -38 -45 -51 -3 -4 -5 -31 -32 -39 0
-62 -50 -44 -37 -10 -66 -48 -42 -35 -8 -63 -39 -32 -5 -51 -31 -4 -45 -3 -38 -11 0
-66 -10 -37 -44 -50 -62 -11 -38 -45 -51 -63 -3 -4 -5 -8 -31 -32 -35 -39 -42 -48 0
-11 -38 -45 -51 -63 -66 -3 -4 -5 -8 -10 -31 -32 -35 -37 -39 -42 -44 -48 -50 -62 0
-66 -63 -51 -45 -38 -11 -62 -50 -44 -37 -10 -48 -42 -35 -8 -39 -32 -5 -31 -4 -3 0
-3 -4 -5 -9 -10 -11 -31 -32 -36 -37 -38 -39 -43 -44 -45 -49 -50 -51 -64 -65 -66 0
-11 -10 -9 -5 -4 -3 -66 -65 -51 -45 -38 -64 -50 -44 -37 -49 -43 -36 -39 -32 -31 0
-3 -38 -37 -36 -32 -31 -11 -10 -9 -5 -4 -66 -65 -51 -45 -64 -50 -44 -49 -43 -39 0
-31 -32 -36 -37 -38 -3 -39 -43 -44 -45 -4 -49 -50 -51 -5 -64 -65 -9 -66 -10 -11 0
-31 -4 -45 -44 -43 -39 -3 -38 -37 -36 -32 -11 -10 -9 -5 -66 -65 -51 -64 -50 -49 0
-39 -43 -44 -45 -4 -31 -49 -50 -51 -5 -32 -64 -65 -9 -36 -66 -10 -37 -11 -38 -3 0
-39 -32 -5 -51 -50 -49 -31 -4 -45 -44 -43 -3 -38 -37 -36 -11 -10 -9 -66 -65 -64 0
-49 -50 -51 -5 -32 -39 -64 -65 -9 -36 -43 -66 -10 -37 -44 -11 -38 -45 -3 -4 -31 0
-49 -43 -36 -9 -65 -64 -39 -32 -5 -51 -50 -31 -4 -45 -44 -3 -38 -37 -11 -10 -66 0
-64 -65 -9 -36 -43 -49 -66 -10 -37 -44 -50 -11 -38 -45 -51 -3 -4 -5 -31 -32 -39 0
-64 -50 -44 -37 -10 -66 -49 -43 -36 -9 -65 -39 -32 -5 -51 -31 -4 -45 -3 -38 -11 0
-66 -10 -37 -44 -50 -64 -11 -38 -45 -51 -65 -3 -4 -5 -9 -31 -32 -36 -39 -43 -49 0
-11 -38 -45 -51 -65 -66 -3 -4 -5 -9 -10 -31 -32 -36 -37 -39 -43 -44 -49 -50 -64 0
-66 -65 -51 -45 -38 -11 -64 -50 -44 -37 -10 -49 -43 -36 -9 -39 -32 -5 -31 -4 -3 0
-3 -4 -6 -7 -8 -9 -31 -33 -34 -35 -36 -40 -41 -42 -43 -52 -53 -54 -57 -58 -61 0
-9 -8 -7 -6 -4 -3 -61 -58 -54 -43 -36 -57 -53 -42 -35 -52 -41 -34 -40 -33 -31 0
-3 -36 -35 -34 -33 -31 -9 -8 -7 -6 -4 -61 -58 -54 -43 -57 -53 -42 -52 -41 -40 0
-31 -33 -34 -35 -36 -3 -40 -41 -42 -43 -4 -52 -53 -54 -6 -57 -58 -7 -61 -8 -9 0
-31 -4 -43 -42 -41 -40 -3 -36 -35 -34 -33 -9 -8 -7 -6 -61 -58 -54 -57 -53 -52 0
-40 -41 -42 -43 -4 -31 -52 -53 -54 -6 -33 -57 -58 -7 -34 -61 -8 -35 -9 -36 -3 0
-40 -33 -6 -54 -53 -52 -31 -4 -43 -42 -41 -3 -36 -35 -34 -9 -8 -7 -61 -58 -57 0
-52 -53 -54 -6 -33 -40 -57 -58 -7 -34 -41 -61 -8 -35 -42 -9 -36 -43 -3 -4 -31 0
-52 -41 -34 -7 -58 -57 -40 -33 -6 -54 -53 -31 -4 -43 -42 -3 -36 -35 -9 -8 -61 0
-57 -58 -7 -34 -41 -52 -61 -8 -35 -42 -53 -9 -36 -43 -54 -3 -4 -6 -31 -33 -40 0
-57 -53 -42 -35 -8 -61 -52 -41 -34 -7 -58 -40 -33 -6 -54 -31 -4 -43 -3 -36 -9 0
-61 -8 -35 -42 -53 -57 -9 -36 -43 -54 -58 -3 -4 -6 -7 -31 -33 -34 -40 -41 -52 0
-9 -36 -43 -54 -58 -61 -3 -4 -6 -7 -8 -31 -33 -34 -35 -40 -41 -42 -52 -53 -57 0
-61 -58 -54 -43 -36 -9 -57 -53 -42 -35 -8 -52 -41 -34 -7 -40 -33 -6 -31 -4 -3 0
-3 -4 -6 -7 -8 -10 -31 -33 -34 -35 -37 -40 -41 -42 -44 -52 -53 -55 -57 -59 -62 0
-10 -8 -7 -6 -4 -3 -62 -59 -55 -44 -37 -57 -53 -42 -35 -52 -41 -34 -40 -33 -31 0
-3 -37 -35 -34 -33 -31 -10 -8 -7 -6 -4 -62 -59 -55 -44 -57 -53 -42 -52 -41 -40 0
-31 -33 -34 -35 -37 -3 -40 -41 -42 -44 -4 -52 -53 -55 -6 -57 -59 -7 -62 -8 -10 0
-31 -4 -44 -42 -41 -40 -3 -37 -35 -34 -33 -10 -8 -7 -6 -62 -59 -55 -57 -53 -52 0
-40 -41 -42 -44 -4 -31 -52 -53 -55 -6 -33 -57 -59 -7 -34 -62 -8 -35 -10 -37 -3 0
-40 -33 -6 -55 -53 -52 -31 -4 -44 -42 -41 -3 -37 -35 -34 -10 -8 -7 -62 -59 -57 0
-52 -53 -55 -6 -33 -40 -57 -59 -7 -34 -41 -62 -8 -35 -42 -10 -37 -44 -3 -4 -31 0
-52 -41 -34 -7 -59 -57 -40 -33 -6 -55 -53 -31 -4 -44 -42 -3 -37 -35 -10 -8 -62 0
-57 -59 -7 -34 -41 -52 -62 -8 -35 -42 -53 -10 -37 -44 -55 -3 -4 -6 -31 -33 -40 0
-57 -53 -42 -35 -8 -62 -52 -41 -34 -7 -59 -40 -33 -6 -55 -31 -4 -44 -3 -37 -10 0
-62 -8 -35 -42 -53 -57 -10 -37 -44 -55 -59 -3 -4 -6 -7 -31 -33 -34 -40 -41 -52 0
-10 -37 -44 -55 -59 -62 -3 -4 -6 -7 -8 -31 -33 -34 -35 -40 -41 -42 -52 -53 -57 0
-62 -59 -55 -44 -37 -10 -57 -53 -42 -35 -8 -52 -41 -34 -7 -40 -33 -6 -31 -4 -3 0
-3 -4 -6 -7 -8 -11 -31 -33 -34 -35 -38 -40 -41 -42 -45 -52 -53 -56 -57 -60 -63 0
-11 -8 -7 -6 -4 -3 -63 -60 -56 -45 -38 -57 -53 -42 -35 -52 -41 -34 -40 -33 -31 0
-3 -38 -35 -34 -33 -31 -11 -8 -7 -6 -4 -63 -60 -56 -45 -57 -53 -42 -52 -41 -40 0
-31 -33 -34 -35 -38 -3 -40 -41 -42 -45 -4 -52 -53 -56 -6 -57 -60 -7 -63 -8 -11 0
-31 -4 -45 -42 -41 -40 -3 -38 -35 -34 -33 -11 -8 -7 -6 -63 -60 -56 -57 -53 -52 0
-40 -41 -42 -45 -4 -31 -52 -53 -56 -6 -33 -57 -60 -7 -34 -63 -8 -35 -11 -38 -3 0
-40 -33 -6 -56 -53 -52 -31 -4 -45 -42 -41 -3 -38 -35 -34 -11 -8 -7 -63 -60 -57 0
-52 -53 -56 -6 -33 -40 -57 -60 -7 -34 -41 -63 -8 -35 -42 -11 -38 -45 -3 -4 -31 0
-52 -41 -34 -7 -60 -57 -40 -33 -6 -56 -53 -31 -4 -45 -42 -3 -38 -35 -11 -8 -63 0
-57 -60 -7 -34 -41 -52 -63 -8 -35 -42 -53 -11 -38 -45 -56 -3 -4 -6 -31 -33 -40 0
-57 -53 -42 -35 -8 -63 -52 -41 -34 -7 -60 -40 -33 -6 -56 -31 -4 -45 -3 -38 -11 0
-63 -8 -35 -42 -53 -57 -11 -38 -45 -56 -60 -3 -4 -6 -7 -31 -33 -34 -40 -41 -52 0
-11 -38 -45 -56 -60 -63 -3 -4 -6 -7 -8 -31 -33 -34 -35 -40 -41 -42 -52 -53 -57 0
-63 -60 -56 -45 -38 -11 -57 -53 -42 -35 -8 -52 -41 -34 -7 -40 -33 -6 -31 -4 -3 0
-3 -4 -6 -7 -9 -10 -31 -33 -34 -36 -37 -40 -41 -43 -44 -52 -54 -55 -58 -59 -64 0
-10 -9 -7 -6 -4 -3 -64 -59 -55 -44 -37 -58 -54 -43 -36 -52 -41 -34 -40 -33 -31 0
-3 -37 -36 -34 -33 -31 -10 -9 -7 -6 -4 -64 -59 -55 -44 -58 -54 -43 -52 -41 -40 0
-31 -33 -34 -36 -37 -3 -40 -41 -43 -44 -4 -52 -54 -55 -6 -58 -59 -7 -64 -9 -10 0
-31 -4 -44 -43 -41 -40 -3 -37 -36 -34 -33 -10 -9 -7 -6 -64 -59 -55 -58 -54 -52 0
-40 -41 -43 -44 -4 -31 -52 -54 -55 -6 -33 -58 -59 -7 -34 -64 -9 -36 -10 -37 -3 0
-40 -33 -6 -55 -54 -52 -31 -4 -44 -43 -41 -3 -37 -36 -34 -10 -9 -7 -64 -59 -58 0
-52 -54 -55 -6 -33 -40 -58 -59 -7 -34 -41 -64 -9 -36 -43 -10 -37 -44 -3 -4 -31 0
-52 -41 -34 -7 -59 -58 -40 -33 -6 -55 -54 -31 -4 -44 -43 -3 -37 -36 -10 -9 -64 0
-58 -59 -7 -34 -41 -52 -64 -9 -36 -43 -54 -10 -37 -44 -55 -3 -4 -6 -31 -33 -40 0
-58 -54 -43 -36 -9 -64 -52 -41 -34 -7 -59 -40 -33 -6 -55 -31 -4 -44 -3 -37 -10 0
-64 -9 -36 -43 -54 -58 -10 -37 -44 -55 -59 -3 -4 -6 -7 -31 -33 -34 -40 -41 -52 0
-10 -37 -44 -55 -59 -64 -3 -4 -6 -7 -9 -31 -33 -34 -36 -40 -41 -43 -52 -54 -58 0
-64 -59 -55 -44 -37 -10 -58 -54 -43 -36 -9 -52 -41 -34 -7 -40 -33 -6 -31 -4 -3 0
-3 -4 -6 -7 -9 -11 -31 -33 -34 -36 -38 -40 -41 -43 -45 -52 -54 -56 -58 -60 -65 0
-11 -9 -7 -6 -4 -3 -65 -60 -56 -45 -38 -58 -54 -43 -36 -52 -41 -34 -40 -33 -31 0
-3 -38 -36 -34 -33 -31 -11 -9 -7 -6 -4 -65 -60 -56 -45 -58 -54 -43 -52 -41 -40 0
-31 -33 -34 -36 -38 -3 -40 -41 -43 -45 -4 -52 -54 -56 -6 -58 -60 -7 -65 -9 -11 0
-31 -4 -45 -43 -41 -40 -3 -38 -36 -34 -33 -11 -9 -7 -6 -65 -60 -56 -58 -54 -52 0
-40 -41 -43 -45 -4 -31 -52 -54 -56 -6 -33 -58 -60 -7 -34 -65 -9 -36 -11 -38 -3 0
-40 -33 -6 -56 -54 -52 -31 -4 -45 -43 -41 -3 -38 -36 -34 -11 -9 -7 -65 -60 -58 0
-52 -54 -56 -6 -33 -40 -58 -60 -7 -34 -41 -65 -9 -36 -43 -11 -38 -45 -3 -4 -31 0
-52 -41 -34 -7 -60 -58 -40 -33 -6 -56 -54 -31 -4 -45 -43 -3 -38 -36 -11 -9 -65 0
-58 -60 -7 -34 -41 -52 -65 -9 -36 -43 -54 -11 -38 -45 -56 -3 -4 -6 -31 -33 -40 0
-58 -54 -43 -36 -9 -65 -52 -41 -34 -7 -60 -40 -33 -6 -56 -31 -4 -45 -3 -38 -11 0
-65 -9 -36 -43 -54 -58 -11 -38 -45 -56 -60 -3 -4 -6 -7 -31 -33 -34 -40 -41 -52 0
-11 -38 -45 -56 -60 -65 -3 -4 -6 -7 -9 -31 -33 -34 -36 -40 -41 -43 -52 -54 -58 0
-65 -60 -56 -45 -38 -11 -58 -54 -43 -36 -9 -52 -41 -34 -7 -40 -33 -6 -31 -4 -3 0
-3 -4 -6 -7 -10 -11 -31 -33 -34 -37 -38 -40 -41 -44 -45 -52 -55 -56 -59 -60 -66 0
-11 -10 -7 -6 -4 -3 -66 -60 -56 -45 -38 -59 -55 -44 -37 -52 -41 -34 -40 -33 -31 0
-3 -38 -37 -34 -33 -31 -11 -10 -7 -6 -4 -66 -60 -56 -45 -59 -55 -44 -52 -41 -40 0
-31 -33 -34 -37 -38 -3 -40 -41 -44 -45 -4 -52 -55 -56 -6 -59 -60 -7 -66 -10 -11 0
-31 -4 -45 -44 -41 -40 -3 -38 -37 -34 -33 -11 -10 -7 -6 -66 -60 -56 -59 -55 -52 0
-40 -41 -44 -45 -4 -31 -52 -55 -56 -6 -33 -59 -60 -7 -34 -66 -10 -37 -11 -38 -3 0
-40 -33 -6 -56 -55 -52 -31 -4 -45 -44 -41 -3 -38 -37 -34 -11 -10 -7 -66 -60 -59 0
-52 -55 -56 -6 -33 -40 -59 -60 -7 -34 -41 -66 -10 -37 -44 -11 -38 -45 -3 -4 -31 0
-52 -41 -34 -7 -60 -59 -40 -33 -6 -56 -55 -31 -4 -45 -44 -3 -38 -37 -11 -10 -66 0
-59 -60 -7 -34 -41 -52 -66 -10 -37 -44 -55 -11 -38 -45 -56 -3 -4 -6 -31 -33 -40 0
-59 -55 -44 -37 -10 -66 -52 -41 -34 -7 -60 -40 -33 -6 -56 -31 -4 -45 -3 -38 -11 0
-66 -10 -37 -44 -55 -59 -11 -38 -45 -56 -60 -3 -4 -6 -7 -31 -33 -34 -40 -41 -52 0
-11 -38 -45 -56 -60 -66 -3 -4 -6 -7 -10 -31 -33 -34 -37 -40 -41 -44 -52 -55 -59 0
-66 -60 -56 -45 -38 -11 -59 -55 -44 -37 -10 -52 -41 -34 -7 -40 -33 -6 -31 -4 -3 0
-3 -4 -6 -8 -9 -10 -31 -33 -35 -36 -37 -40 -42 -43 -44 -53 -54 -55 -61 -62 -64 0
-10 -9 -8 -6 -4 -3 -64 -62 -55 -44 -37 -61 -54 -43 -36 -53 -42 -35 -40 -33 -31 0
-3 -37 -36 -35 -33 -31 -10 -9 -8 -6 -4 -64 -62 -55 -44 -61 -54 -43 -53 -42 -40 0
-31 -33 -35 -36 -37 -3 -40 -42 -43 -44 -4 -53 -54 -55 -6 -61 -62 -8 -64 -9 -10 0
-31 -4 -44 -43 -42 -40 -3 -37 -36 -35 -33 -10 -9 -8 -6 -64 -62 -55 -61 -54 -53 0
-40 -42 -43 -44 -4 -31 -53 -54 -55 -6 -33 -61 -62 -8 -35 -64 -9 -36 -10 -37 -3 0
-40 -33 -6 -55 -54 -53 -31 -4 -44 -43 -42 -3 -37 -36 -35 -10 -9 -8 -64 -62 -61 0
-53 -54 -55 -6 -33 -40 -61 -62 -8 -35 -42 -64 -9 -36 -43 -10 -37 -44 -3 -4 -31 0
-53 -42 -35 -8 -62 -61 -40 -33 -6 -55 -54 -31 -4 -44 -43 -3 -37 -36 -10 -9 -64 0
-61 -62 -8 -35 -42 -53 -64 -9 -36 -43 -54 -10 -37 -44 -55 -3 -4 -6 -31 -33 -40 0
-61 -54 -43 -36 -9 -64 -53 -42 -35 -8 -62 -40 -33 -6 -55 -31 -4 -44 -3 -37 -10 0
-64 -9 -36 -43 -54 -61 -10 -37 -44 -55 -62 -3 -4 -6 -8 -31 -33 -35 -40 -42 -53 0
-10 -37 -44 -55 -62 -64 -3 -4 -6 -8 -9 -31 -33 -35 -36 -40 -42 -43 -53 -54 -61 0
-64 -62 -55 -44 -37 -10 -61 -54 -43 -36 -9 -53 -42 -35 -8 -40 -33 -6 -31 -4 -3 0
-3 -4 -6 -8 -9 -11 -31 -33 -35 -36 -38 -40 -42 -43 -45 -53 -54 -56 -61 -63 -65 0
-11 -9 -8 -6 -4 -3 -65 -63 -56 -45 -38 -61 -54 -43 -36 -53 -42 -35 -40 -33 -31 0
-3 -38 -36 -35 -33 -31 -11 -9 -8 -6 -4 -65 -63 -56 -45 -61 -54 -43 -53 -42 -40 0
-31 -33 -35 -36 -38 -3 -40 -42 -43 -45 -4 -53 -54 -56 -6 -61 -63 -8 -65 -9 -11 0
-31 -4 -45 -43 -42 -40 -3 -38 -36 -35 -33 -11 -9 -8 -6 -65 -63 -56 -61 -54 -53 0
-40 -42 -43 -45 -4 -31 -53 -54 -56 -6 -33 -61 -63 -8 -35 -65 -9 -36 -11 -38 -3 0
-40 -33 -6 -56 -54 -53 -31 -4 -45 -43 -42 -3 -38 -36 -35 -11 -9 -8 -65 -63 -61 0
-53 -54 -56 -6 -33 -40 -61 -63 -8 -35 -42 -65 -9 -36 -43 -11 -38 -45 -3 -4 -31 0
-53 -42 -35 -8 -63 -61 -40 -33 -6 -56 -54 -31 -4 -45 -43 -3 -38 -36 -11 -9 -65 0
-61 -63 -8 -35 -42 -53 -65 -9 -36 -43 -54 -11 -38 -45 -56 -3 -4 -6 -31 -33 -40 0
-61 -54 -43 -36 -9 -65 -53 -42 -35 -8 -63 -40 -33 -6 -56 -31 -4 -45 -3 -38 -11 0
-65 -9 -36 -43 -54 -61 -11 -38 -45 -56 -63 -3 -4 -6 -8 -31 -33 -35 -40 -42 -53 0
-11 -38 -45 -56 -63 -65 -3 -4 -6 -8 -9 -31 -33 -35 -36 -40 -42 -43 -53 -54 -61 0
-65 -63 -56 -45 -38 -11 -61 -54 -43 -36 -9 -53 -42 -35 -8 -40 -33 -6 -31 -4 -3 0
-3 -4 -6 -8 -10 -11 -31 -33 -35 -37 -38 -40 -42 -44 -45 -53 -55 -56 -62 -63 -66 0
-11 -10 -8 -6 -4 -3 -66 -63 -56 -45 -38 -62 -55 -44 -37 -53 -42 -35 -40 -33 -31 0
-3 -38 -37 -35 -33 -31 -11 -10 -8 -6 -4 -66 -63 -56 -45 -62 -55 -44 -53 -42 -40 0
-31 -33 -35 -37 -38 -3 -40 -42 -44 -45 -4 -53 -55 -56 -6 -62 -63 -8 -66 -10 -11 0
-31 -4 -45 -44 -42 -40 -3 -38 -37 -35 -33 -11 -10 -8 -6 -66 -63 -56 -62 -55 -53 0
-40 -42 -44 -45 -4 -31 -53 -55 -56 -6 -33 -62 -63 -8 -35 -66 -10 -37 -11 -38 -3 0
-40 -33 -6 -56 -55 -53 -31 -4 -45 -44 -42 -3 -38 -37 -35 -11 -10 -8 -66 -63 -62 0
-53 -55 -56 -6 -33 -40 -62 -63 -8 -35 -42 -66 -10 -37 -44 -11 -38 -45 -3 -4 -31 0
-53 -42 -35 -8 -63 -62 -40 -33 -6 -56 -55 -31 -4 -45 -44 -3 -38 -37 -11 -10 -66 0
-62 -63 -8 -35 -42 -53 -66 -10 -37 -44 -55 -11 -38 -45 -56 -3 -4 -6 -31 -33 -40 0
-62 -55 -44 -37 -10 -66 -53 -42 -35 -8 -63 -40 -33 -6 -56 -31 -4 -45 -3 -38 -11 0
-66 -10 -37 -44 -55 -62 -11 -38 -45 -56 -63 -3 -4 -6 -8 -31 -33 -35 -40 -42 -53 0
-11 -38 -45 -56 -63 -66 -3 -4 -6 -8 -10 -31 -33 -35 -37 -40 -42 -44 -53 -55 -62 0
-66 -63 -56 -45 -38 -11 -62 -55 -44 -37 -10 -53 -42 -35 -8 -40 -33 -6 -31 -4 -3 0
-3 -4 -6 -9 -10 -11 -31 -33 -36 -37 -38 -40 -43 -44 -45 -54 -55 -56 -64 -65 -66 0
-11 -10 -9 -6 -4 -3 -66 -65 -56 -45 -38 -64 -55 -44 -37 -54 -43 -36 -40 -33 -31 0
-3 -38 -37 -36 -33 -31 -11 -10 -9 -6 -4 -66 -65 -56 -45 -64 -55 -44 -54 -43 -40 0
-31 -33 -36 -37 -38 -3 -40 -43 -44 -45 -4 -54 -55 -56 -6 -64 -65 -9 -66 -10 -11 0
-31 -4 -45 -44 -43 -40 -3 -38 -37 -36 -33 -11 -10 -9 -6 -66 -65 -56 -64 -55 -54 0
-40 -43 -44 -45 -4 -31 -54 -55 -56 -6 -33 -64 -65 -9 -36 -66 -10 -37 -11 -38 -3 0
-40 -33 -6 -56 -55 -54 -31 -4 -45 -44 -43 -3 -38 -37 -36 -11 -10 -9 -66 -65 -64 0
-54 -55 -56 -6 -33 -40 -64 -65 -9 -36 -43 -66 -10 -37 -44 -11 -38 -45 -3 -4 -31 0
-54 -43 -36 -9 -65 -64 -40 -33 -6 -56 -55 -31 -4 -45 -44 -3 -38 -37 -11 -10 -66 0
-64 -65 -9 -36 -43 -54 -66 -10 -37 -44 -55 -11 -38 -45 -56 -3 -4 -6 -31 -33 -40 0
-64 -55 -44 -37 -10 -66 -54 -43 -36 -9 -65 -40 -33 -6 -56 -31 -4 -45 -3 -38 -11 0
-66 -10 -37 -44 -55 -64 -11 -38 -45 -56 -65 -3 -4 -6 -9 -31 -33 -36 -40 -43 -54 0
-11 -38 -45 -56 -65 -66 -3 -4 -6 -9 -10 -31 -33 -36 -37 -40 -43 -44 -54 -55 -64 0
-66 -65 -56 -45 -38 -11 -64 -55 -44 -37 -10 -54 -43 -36 -9 -40 -33 -6 -31 -4 -3 0
-3 -4 -7 -8 -9 -10 -31 -34 -35 -36 -37 -41 -42 -43 -44 -57 -58 -59 -61 -62 -64 0
-10 -9 -8 -7 -4 -3 -64 -62 -59 -44 -37 -61 -58 -43 -36 -57 -42 -35 -41 -34 -31 0
-3 -37 -36 -35 -34 -31 -10 -9 -8 -7 -4 -64 -62 -59 -44 -61 -58 -43 -57 -42 -41 0
-31 -34 -35 -36 -37 -3 -41 -42 -43 -44 -4 -57 -58 -59 -7 -61 -62 -8 -64 -9 -10 0
-31 -4 -44 -43 -42 -41 -3 -37 -36 -35 -34 -10 -9 -8 -7 -64 -62 -59 -61 -58 -57 0
-41 -42 -43 -44 -4 -31 -57 -58 -59 -7 -34 -61 -62 -8 -35 -64 -9 -36 -10 -37 -3 0
-41 -34 -7 -59 -58 -57 -31 -4 -44 -43 -42 -3 -37 -36 -35 -10 -9 -8 -64 -62 -61 0
-57 -58 -59 -7 -34 -41 -61 -62 -8 -35 -42 -64 -9 -36 -43 -10 -37 -44 -3 -4 -31 0
-57 -42 -35 -8 -62 -61 -41 -34 -7 -59 -58 -31 -4 -44 -43 -3 -37 -36 -10 -9 -64 0
-61 -62 -8 -35 -42 -57 -64 -9 -36 -43 -58 -10 -37 -44 -59 -3 -4 -7 -31 -34 -41 0
-61 -58 -43 -36 -9 -64 -57 -42 -35 -8 -62 -41 -34 -7 -59 -31 -4 -44 -3 -37 -10 0
-64 -9 -36 -43 -58 -61 -10 -37 -44 -59 -62 -3 -4 -7 -8 -31 -34 -35 -41 -42 -57 0
-10 -37 -44 -59 -62 -64 -3 -4 -7 -8 -9 -31 -34 -35 -36 -41 -42 -43 -57 -58 -61 0
-64 -62 -59 -44 -37 -10 -61 -58 -43 -36 -9 -57 -42 -35 -8 -41 -34 -7 -31 -4 -3 0
-3 -4 -7 -8 -9 -11 -31 -34 -35 -36 -38 -41 -42 -43 -45 -57 -58 -60 -61 -63 -65 0
-11 -9 -8 -7 -4 -3 -65 -63 -60 -45 -38 -61 -58 -43 -36 -57 -42 -35 -41 -34 -31 0
-3 -38 -36 -35 -34 -31 -11 -9 -8 -7 -4 -65 -63 -60 -45 -61 -58 -43 -57 -42 -41 0
-31 -34 -35 -36 -38 -3 -41 -42 -43 -45 -4 -57 -58 -60 -7 -61 -63 -8 -65 -9 -11 0
-31 -4 -45 -43 -42 -41 -3 -38 -36 -35 -34 -11 -9 -8 -7 -65 -63 -60 -61 -58 -57 0
-41 -42 -43 -45 -4 -31 -57 -58 -60 -7 -34 -61 -63 -8 -35 -65 -9 -36 -11 -38 -3 0
-41 -34 -7 -60 -58 -57 -31 -4 -45 -43 -42 -3 -38 -36 -35 -11 -9 -8 -65 -63 -61 0
-57 -58 -60 -7 -34 -41 -61 -63 -8 -35 -42 -65 -9 -36 -43 -11 -38 -45 -3 -4 -31 0
-57 -42 -35 -8 -63 -61 -41 -34 -7 -60 -58 -31 -4 -45 -43 -3 -38 -36 -11 -9 -65 0
-61 -63 -8 -35 -42 -57 -65 -9 -36 -43 -58 -11 -38 -45 -60 -3 -4 -7 -31 -34 -41 0
-61 -58 -43 -36 -9 -65 -57 -42 -35 -8 -63 -41 -34 -7 -60 -31 -4 -45 -3 -38 -11 0
-65 -9 -36 -43 -58 -61 -11 -38 -45 -60 -63 -3 -4 -7 -8 -31 -34 -35 -41 -42 -57 0
-11 -38 -45 -60 -63 -65 -3 -4 -7 -8 -9 -31 -34 -35 -36 -41 -42 -43 -57 -58 -61 0
-65 -63 -60 -45 -38 -11 -61 -58 -43 -36 -9 -57 -42 -35 -8 -41 -34 -7 -31 -4 -3 0
-3 -4 -7 -8 -10 -11 -31 -34 -35 -37 -38 -41 -42 -44 -45 -57 -59 -60 -62 -63 -66 0
-11 -10 -8 -7 -4 -3 -66 -63 -60 -45 -38 -62 -59 -44 -37 -57 -42 -35 -41 -34 -31 0
-3 -38 -37 -35 -34 -31 -11 -10 -8 -7 -4 -66 -63 -60 -45 -62 -59 -44 -57 -42 -41 0
-31 -34 -35 -37 -38 -3 -41 -42 -44 -45 -4 -57 -59 -60 -7 -62 -63 -8 -66 -10 -11 0
-31 -4 -45 -44 -42 -41 -3 -38 -37 -35 -34 -11 -10 -8 -7 -66 -63 -60 -62 -59 -57 0
-41 -42 -44 -45 -4 -31 -57 -59 -60 -7 -34 -62 -63 -8 -35 -66 -10 -37 -11 -38 -3 0
-41 -34 -7 -60 -59 -57 -31 -4 -45 -44 -42 -3 -38 -37 -35 -11 -10 -8 -66 -63 -62 0
-57 -59 -60 -7 -34 -41 -62 -63 -8 -35 -42 -66 -10 -37 -44 -11 -38 -45 -3 -4 -31 0
-57 -42 -35 -8 -63 -62 -41 -34 -7 -60 -59 -31 -4 -45 -44 -3 -38 -37 -11 -10 -66 0
-62 -63 -8 -35 -42 -57 -66 -10 -37 -44 -59 -11 -38 -45 -60 -3 -4 -7 -31 -34 -41 0
-62 -59 -44 -37 -10 -66 -57 -42 -35 -8 -63 -41 -34 -7 -60 -31 -4 -45 -3 -38 -11 0
-66 -10 -37 -44 -59 -62 -11 -38 -45 -60 -63 -3 -4 -7 -8 -31 -34 -35 -41 -42 -57 0
-11 -38 -45 -60 -63 -66 -3 -4 -7 -8 -10 -31 -34 -35 -37 -41 -42 -44 -57 -59 -62 0
-66 -63 -60 -45 -38 -11 -62 -59 -44 -37 -10 -57 -42 -35 -8 -41 -34 -7 -31 -4 -3 0
-3 -4 -7 -9 -10 -11 -31 -34 -36 -37 -38 -41 -43 -44 -45 -58 -59 -60 -64 -65 -66 0
-11 -10 -9 -7 -4 -3 -66 -65 -60 -45 -38 -64 -59 -44 -37 -58 -43 -36 -41 -34 -31 0
-3 -38 -37 -36 -34 -31 -11 -10 -9 -7 -4 -66 -65 -60 -45 -64 -59 -44 -58 -43 -41 0
-31 -34 -36 -37 -38 -3 -41 -43 -44 -45 -4 -58 -59 -60 -7 -64 -65 -9 -66 -10 -11 0
-31 -4 -45 -44 -43 -41 -3 -38 -37 -36 -34 -11 -10 -9 -7 -66 -65 -60 -64 -59 -58 0
-41 -43 -44 -45 -4 -31 -58 -59 -60 -7 -34 -64 -65 -9 -36 -66 -10 -37 -11 -38 -3 0
-41 -34 -7 -60 -59 -58 -31 -4 -45 -44 -43 -3 -38 -37 -36 -11 -10 -9 -66 -65 -64 0
-58 -59 -60 -7 -34 -41 -64 -65 -9 -36 -43 -66 -10 -37 -44 -11 -38 -45 -3 -4 -31 0
-58 -43 -36 -9 -65 -64 -41 -34 -7 -60 -59 -31 -4 -45 -44 -3 -38 -37 -11 -10 -66 0
-64 -65 -9 -36 -43 -58 -66 -10 -37 -44 -59 -11 -38 -45 -60 -3 -4 -7 -31 -34 -41 0
-64 -59 -44 -37 -10 -66 -58 -43 -36 -9 -65 -41 -34 -7 -60 -31 -4 -45 -3 -38 -11 0
-66 -10 -37 -44 -59 -64 -11 -38 -45 -60 -65 -3 -4 -7 -9 -31 -34 -36 -41 -43 -58 0
-11 -38 -45 -60 -65 -66 -3 -4 -7 -9 -10 -31 -34 -36 -37 -41 -43 -44 -58 -59 -64 0
-66 -65 -60 -45 -38 -11 -64 -59 -44 -37 -10 -58 -43 -36 -9 -41 -34 -7 -31 -4 -3 0
-3 -4 -8 -9 -10 -11 -31 -35 -36 -37 -38 -42 -43 -44 -45 -61 -62 -63 -64 -65 -66 0
-11 -10 -9 -8 -4 -3 -66 -65 -63 -45 -38 -64 -62 -44 -37 -61 -43 -36 -42 -35 -31 0
-3 -38 -37 -36 -35 -31 -11 -10 -9 -8 -4 -66 -65 -63 -45 -64 -62 -44 -61 -43 -42 0
-31 -35 -36 -37 -38 -3 -42 -43 -44 -45 -4 -61 -62 -63 -8 -64 -65 -9 -66 -10 -11 0
-31 -4 -45 -44 -43 -42 -3 -38 -37 -36 -35 -11 -10 -9 -8 -66 -65 -63 -64 -62 -61 0
-42 -43 -44 -45 -4 -31 -61 -62 -63 -8 -35 -64 -65 -9 -36 -66 -10 -37 -11 -38 -3 0
-42 -35 -8 -63 -62 -61 -31 -4 -45 -44 -43 -3 -38 -37 -36 -11 -10 -9 -66 -65 -64 0
-61 -62 -63 -8 -35 -42 -64 -65 -9 -36 -43 -66 -10 -37 -44 -11 -38 -45 -3 -4 -31 0
-61 -43 -36 -9 -65 -64 -42 -35 -8 -63 -62 -31 -4 -45 -44 -3 -38 -37 -11 -10 -66 0
-64 -65 -9 -36 -43 -61 -66 -10 -37 -44 -62 -11 -38 -45 -63 -3 -4 -8 -31 -35 -42 0
-64 -62 -44 -37 -10 -66 -61 -43 -36 -9 -65 -42 -35 -8 -63 -31 -4 -45 -3 -38 -11 0
-66 -10 -37 -44 -62 -64 -11 -38 -45 -63 -65 -3 -4 -8 -9 -31 -35 -36 -42 -43 -61 0
-11 -38 -45 -63 -65 -66 -3 -4 -8 -9 -10 -31 -35 -36 -37 -42 -43 -44 -61 -62 -64 0
-66 -65 -63 -45 -38 -11 -64 -62 -44 -37 -10 -61 -43 -36 -9 -42 -35 -8 -31 -4 -3 0
-3 -5 -6 -7 -8 -9 -32 -33 -34 -35 -36 -46 -47 -48 -49 -52 -53 -54 -57 -58 -61 0
-9 -8 -7 -6 -5 -3 -61 -58 -54 -49 -36 -57 -53 -48 -35 -52 -47 -34 -46 -33 -32 0
-3 -36 -35 -34 -33 -32 -9 -8 -7 -6 -5 -61 -58 -54 -49 -57 -53 -48 -52 -47 -46 0
-32 -33 -34 -35 -36 -3 -46 -47 -48 -49 -5 -52 -53 -54 -6 -57 -58 -7 -61 -8 -9 0
-32 -5 -49 -48 -47 -46 -3 -36 -35 -34 -33 -9 -8 -7 -6 -61 -58 -54 -57 -53 -52 0
-46 -47 -48 -49 -5 -32 -52 -53 -54 -6 -33 -57 -58 -7 -34 -61 -8 -35 -9 -36 -3 0
-46 -33 -6 -54 -53 -52 -32 -5 -49 -48 -47 -3 -36 -35 -34 -9 -8 -7 -61 -58 -57 0
-52 -53 -54 -6 -33 -46 -57 -58 -7 -34 -47 -61 -8 -35 -48 -9 -36 -49 -3 -5 -32 0
-52 -47 -34 -7 -58 -57 -46 -33 -6 -54 -53 -32 -5 -49 -48 -3 -36 -35 -9 -8 -61 0
-57 -58 -7 -34 -47 -52 -61 -8 -35 -48 -53 -9 -36 -49 -54 -3 -5 -6 -32 -33 -46 0
-57 -53 -48 -35 -8 -61 -52 -47 -34 -7 -58 -46 -33 -6 -54 -32 -5 -49 -3 -36 -9 0
-61 -8 -35 -48 -53 -57 -9 -36 -49 -54 -58 -3 -5 -6 -7 -32 -33 -34 -46 -47 -52 0
-9 -36 -49 -54 -58 -61 -3 -5 -6 -7 -8 -32 -33 -34 -35 -46 -47 -48 -52 -53 -57 0
-61 -58 -54 -49 -36 -9 -57 -53 -48 -35 -8 -52 -47 -34 -7 -46 -33 -6 -32 -5 -3 0
-3 -5 -6 -7 -8 -10 -32 -33 -34 -35 -37 -46 -47 -48 -50 -52 -53 -55 -57 -59 -62 0
-10 -8 -7 -6 -5 -3 -62 -59 -55 -50 -37 -57 -53 -48 -35 -52 -47 -34 -46 -33 -32 0
-3 -37 -35 -34 -33 -32 -10 -8 -7 -6 -5 -62 -59 -55 -50 -57 -53 -48 -52 -47 -46 0
-32 -33 -34 -35 -37 -3 -46 -47 -48 -50 -5 -52 -53 -55 -6 -57 -59 -7 -62 -8 -10 0
-32 -5 -50 -48 -47 -46 -3 -37 -35 -34 -33 -10 -8 -7 -6 -62 -59 -55 -57 -53 -52 0
-46 -47 -48 -50 -5 -32 -52 -53 -55 -6 -33 -57 -59 -7 -34 -62 -8 -35 -10 -37 -3 0
-46 -33 -6 -55 -53 -52 -32 -5 -50 -48 -47 -3 -37 -35 -34 -10 -8 -7 -62 -59 -57 0
-52 -53 -55 -6 -33 -46 -57 -59 -7 -34 -47 -62 -8 -35 -48 -10 -37 -50 -3 -5 -32 0
-52 -47 -34 -7 -59 -57 -46 -33 -6 -55 -53 -32 -5 -50 -48 -3 -37 -35 -10 -8 -62 0
-57 -59 -7 -34 -47 -52 -62 -8 -35 -48 -53 -10 -37 -50 -55 -3 -5 -6 -32 -33 -46 0
-57 -53 -48 -35 -8 -62 -52 -47 -34 -7 -59 -46 -33 -6 -55 -32 -5 -50 -3 -37 -10 0
-62 -8 -35 -48 -53 -57 -10 -37 -50 -55 -59 -3 -5 -6 -7 -32 -33 -34 -46 -47 -52 0
-10 -37 -50 -55 -59 -62 -3 -5 -6 -7 -8 -32 -33 -34 -35 -46 -47 -48 -52 -53 -57 0
-62 -59 -55 -50 -37 -10 -57 -53 -48 -35 -8 -52 -47 -34 -7 -46 -33 -6 -32 -5 -3 0
-3 -5 -6 -7 -8 -11 -32 -33 -34 -35 -38 -46 -47 -48 -51 -52 -53 -56 -57 -60 -63 0
-11 -8 -7 -6 -5 -3 -63 -60 -56 -51 -38 -57 -53 -48 -35 -52 -47 -34 -46 -33 -32 0
-3 -38 -35 -34 -33 -32 -11 -8 -7 -6 -5 -63 -60 -56 -51 -57 -53 -48 -52 -47 -46 0
-32 -33 -34 -35 -38 -3 -46 -47 -48 -51 -5 -52 -53 -56 -6 -57 -60 -7 -63 -8 -11 0
-32 -5 -51 -48 -47 -46 -3 -38 -35 -34 -33 -11 -8 -7 -6 -63 -60 -56 -57 -53 -52 0
-46 -47 -48 -51 -5 -32 -52 -53 -56 -6 -33 -57 -60 -7 -34 -63 -8 -35 -11 -38 -3 0
-46 -33 -6 -56 -53 -52 -32 -5 -51 -48 -47 -3 -38 -35 -34 -11 -8 -7 -63 -60 -57 0
-52 -53 -56 -6 -33 -46 -57 -60 -7 -34 -47 -63 -8 -35 -48 -11 -38 -51 -3 -5 -32 0
-52 -47 -34 -7 -60 -57 -46 -33 -6 -56 -53 -32 -5 -51 -48 -3 -38 -35 -11 -8 -63 0
-57 -60 -7 -34 -47 -52 -63 -8 -35 -48 -53 -11 -38 -51 -56 -3 -5 -6 -32 -33 -46 0
-57 -53 -48 -35 -8 -63 -52 -47 -34 -7 -60 -46 -33 -6 -56 -32 -5 -51 -3 -38 -11 0
-63 -8 -35 -48 -53 -57 -11 -38 -51 -56 -60 -3 -5 -6 -7 -32 -33 -34 -46 -47 -52 0
-11 -38 -51 -56 -60 -63 -3 -5 -6 -7 -8 -32 -33 -34 -35 -46 -47 -48 -52 -53 -57 0
-63 -60 -56 -51 -38 -11 -57 -53 -48 -35 -8 -52 -47 -34 -7 -46 -33 -6 -32 -5 -3 0
-3 -5 -6 -7 -9 -10 -32 -33 -34 -36 -37 -46 -47 -49 -50 -52 -54 -55 -58 -59 -64 0
-10 -9 -7 -6 -5 -3 -64 -59 -55 -50 -37 -58 -54 -49 -36 -52 -47 -34 -46 -33 -32 0
-3 -37 -36 -34 -33 -32 -10 -9 -7 -6 -5 -64 -59 -55 -50 -58 -54 -49 -52 -47 -46 0
-32 -33 -34 -36 -37 -3 -46 -47 -49 -50 -5 -52 -54 -55 -6 -58 -59 -7 -64 -9 -10 0
-32 -5 -50 -49 -47 -46 -3 -37 -36 -34 -33 -10 -9 -7 -6 -64 -59 -55 -58 -54 -52 0
-46 -47 -49 -50 -5 -32 -52 -54 -55 -6 -33 -58 -59 -7 -34 -64 -9 -36 -10 -37 -3 0
-46 -33 -6 -55 -54 -52 -32 -5 -50 -49 -47 -3 -37 -36 -34 -10 -9 -7 -64 -59 -58 0
-52 -54 -55 -6 -33 -46 -58 -59 -7 -34 -47 -64 -9 -36 -49 -10 -37 -50 -3 -5 -32 0
-52 -47 -34 -7 -59 -58 -46 -33 -6 -55 -54 -32 -5 -50 -49 -3 -37 -36 -10 -9 -64 0
-58 -59 -7 -34 -47 -52 -64 -9 -36 -49 -54 -10 -37 -50 -55 -3 -5 -6 -32 -33 -46 0
-58 -54 -49 -36 -9 -64 -52 -47 -34 -7 -59 -46 -33 -6 -55 -32 -5 -50 -3 -37 -10 0
-64 -9 -36 -49 -54 -58 -10 -37 -50 -55 -59 -3 -5 -6 -7 -32 -33 -34 -46 -47 -52 0
-10 -37 -50 -55 -59 -64 -3 -5 -6 -7 -9 -32 -33 -34 -36 -46 -47 -49 -52 -54 -58 0
-64 -59 -55 -50 -37 -10 -58 -54 -49 -36 -9 -52 -47 -34 -7 -46 -33 -6 -32 -5 -3 0
-3 -5 -6 -7 -9 -11 -32 -33 -34 -36 -38 -46 -47 -49 -51 -52 -54 -56 -58 -60 -65 0
-11 -9 -7 -6 -5 -3 -65 -60 -56 -51 -38 -58 -54 -49 -36 -52 -47 -34 -46 -33 -32 0
-3 -38 -36 -34 -33 -32 -11 -9 -7 -6 -5 -65 -60 -56 -51 -58 -54 -49 -52 -47 -46 0
-32 -33 -34 -36 -38 -3 -46 -47 -49 -51 -5 -52 -54 -56 -6 -58 -60 -7 -65 -9 -11 0
-32 -5 -51 -49 -47 -46 -3 -38 -36 -34 -33 -11 -9 -7 -6 -65 -60 -56 -58 -54 -52 0
-46 -47 -49 -51 -5 -32 -52 -54 -56 -6 -33 -58 -60 -7 -34 -65 -9 -36 -11 -38 -3 0
-46 -33 -6 -56 -54 -52 -32 -5 -51 -49 -47 -3 -38 -36 -34 -11 -9 -7 -65 -60 -58 0
-52 -54 -56 -6 -33 -46 -58 -60 -7 -34 -47 -65 -9 -36 -49 -11 -38 -51 -3 -5 -32 0
-52 -47 -34 -7 -60 -58 -46 -33 -6 -56 -54 -32 -5 -51 -49 -3 -38 -36 -11 -9 -65 0
-58 -60 -7 -34 -47 -52 -65 -9 -36 -49 -54 -11 -38 -51 -56 -3 -5 -6 -32 -33 -46 0
-58 -54 -49 -36 -9 -65 -52 -47 -34 -7 -60 -46 -33 -6 -56 -32 -5 -51 -3 -38 -11 0
-65 -9 -36 -49 -54 -58 -11 -38 -51 -56 -60 -3 -5 -6 -7 -32 -33 -34 -46 -47 -52 0
-11 -38 -51 -56 -60 -65 -3 -5 -6 -7 -9 -32 -33 -34 -36 -46 -47 -49 -52 -54 -58 0
-65 -60 -56 -51 -38 -11 -58 -54 -49 -36 -9 -52 -47 -34 -7 -46 -33 -6 -32 -5 -3 0
-3 -5 -6 -7 -10 -11 -32 -33 -34 -37 -38 -46 -47 -50 -51 -52 -55 -56 -59 -60 -66 0
-11 -10 -7 -6 -5 -3 -66 -60 -56 -51 -38 -59 -55 -50 -37 -52 -47 -34 -46 -33 -32 0
-3 -38 -37 -34 -33 -32 -11 -10 -7 -6 -5 -66 -60 -56 -51 -59 -55 -50 -52 -47 -46 0
-32 -33 -34 -37 -38 -3 -46 -47 -50 -51 -5 -52 -55 -56 -6 -59 -60 -7 -66 -10 -11 0
-32 -5 -51 -50 -47 -46 -3 -38 -37 -34 -33 -11 -10 -7 -6 -66 -60 -56 -59 -55 -52 0
-46 -47 -50 -51 -5 -32 -52 -55 -56 -6 -33 -59 -60 -7 -34 -66 -10 -37 -11 -38 -3 0
-46 -33 -6 -56 -55 -52 -32 -5 -51 -50 -47 -3 -38 -37 -34 -11 -10 -7 -66 -60 -59 0
-52 -55 -56 -6 -33 -46 -59 -60 -7 -34 -47 -66 -10 -37 -50 -11 -38 -51 -3 -5 -32 0
-52 -47 -34 -7 -60 -59 -46 -33 -6 -56 -55 -32 -5 -51 -50 -3 -38 -37 -11 -10 -66 0
-59 -60 -7 -34 -47 -52 -66 -10 -37 -50 -55 -11 -38 -51 -56 -3 -5 -6 -32 -33 -46 0
-59 -55 -50 -37 -10 -66 -52 -47 -34 -7 -60 -46 -33 -6 -56 -32 -5 -51 -3 -38 -11 0
-66 -10 -37 -50 -55 -59 -11 -38 -51 -56 -60 -3 -5 -6 -7 -32 -33 -34 -46 -47 -52 0
-11 -38 -51 -56 -60 -66 -3 -5 -6 -7 -10 -32 -33 -34 -37 -46 -47 -50 -52 -55 -59 0
-66 -60 -56 -51 -38 -11 -59 -55 -50 -37 -10 -52 -47 -34 -7 -46 -33 -6 -32 -5 -3 0
-3 -5 -6 -8 -9 -10 -32 -33 -35 -36 -37 -46 -48 -49 -50 -53 -54 -55 -61 -62 -64 0
-10 -9 -8 -6 -5 -3 -64 -62 -55 -50 -37 -61 -54 -49 -36 -53 -48 -35 -46 -33 -32 0
-3 -37 -36 -35 -33 -32 -10 -9 -8 -6 -5 -64 -62 -55 -50 -61 -54 -49 -53 -48 -46 0
-32 -33 -35 -36 -37 -3 -46 -48 -49 -50 -5 -53 -54 -55 -6 -61 -62 -8 -64 -9 -10 0
-32 -5 -50 -49 -48 -46 -3 -37 -36 -35 -33 -10 -9 -8 -6 -64 -62 -55 -61 -54 -53 0
-46 -48 -49 -50 -5 -32 -53 -54 -55 -6 -33 -61 -62 -8 -35 -64 -9 -36 -10 -37 -3 0
-46 -33 -6 -55 -54 -53 -32 -5 -50 -49 -48 -3 -37 -36 -35 -10 -9 -8 -64 -62 -61 0
-53 -54 -55 -6 -33 -46 -61 -62 -8 -35 -48 -64 -9 -36 -49 -10 -37 -50 -3 -5 -32 0
-53 -48 -35 -8 -62 -61 -46 -33 -6 -55 -54 -32 -5 -50 -49 -3 -37 -36 -10 -9 -64 0
-61 -62 -8 -35 -48 -53 -64 -9 -36 -49 -54 -10 -37 -50 -55 -3 -5 -6 -32 -33 -46 0
-61 -54 -49 -36 -9 -64 -53 -48 -35 -8 -62 -46 -33 -6 -55 -32 -5 -50 -3 -37 -10 0
-64 -9 -36 -49 -54 -61 -10 -37 -50 -55 -62 -3 -5 -6 -8 -32 -33 -35 -46 -48 -53 0
-10 -37 -50 -55 -62 -64 -3 -5 -6 -8 -9 -32 -33 -35 -36 -46 -48 -49 -53 -54 -61 0
-64 -62 -55 -50 -37 -10 -61 -54 -49 -36 -9 -53 -48 -35 -8 -46 -33 -6 -32 -5 -3 0
-3 -5 -6 -8 -9 -11 -32 -33 -35 -36 -38 -46 -48 -49 -51 -53 -54 -56 -61 -63 -65 0
-11 -9 -8 -6 -5 -3 -65 -63 -56 -51 -38 -61 -54 -49 -36 -53 -48 -35 -46 -33 -32 0
-3 -38 -36 -35 -33 -32 -11 -9 -8 -6 -5 -65 -63 -56 -51 -61 -54 -49 -53 -48 -46 0
-32 -33 -35 -36 -38 -3 -46 -48 -49 -51 -5 -53 -54 -56 -6 -61 -63 -8 -65 -9 -11 0
-32 -5 -51 -49 -48 -46 -3 -38 -36 -35 -33 -11 -9 -8 -6 -65 -63 -56 -61 -54 -53 0
-46 -48 -49 -51 -5 -32 -53 -54 -56 -6 -33 -61 -63 -8 -35 -65 -9 -36 -11 -38 -3 0
-46 -33 -6 -56 -54 -53 -32 -5 -51 -49 -48 -3 -38 -36 -35 -11 -9 -8 -65 -63 -61 0
-53 -54 -56 -6 -33 -46 -61 -63 -8 -35 -48 -65 -9 -36 -49 -11 -38 -51 -3 -5 -32 0
-53 -48 -35 -8 -63 -61 -46 -33 -6 -56 -54 -32 -5 -51 -49 -3 -38 -36 -11 -9 -65 0
-61 -63 -8 -35 -48 -53 -65 -9 -36 -49 -54 -11 -38 -51 -56 -3 -5 -6 -32 -33 -46 0
-61 -54 -49 -36 -9 -65 -53 -48 -35 -8 -63 -46 -33 -6 -56 -32 -5 -51 -3 -38 -11 0
-65 -9 -36 -49 -54 -61 -11 -38 -51 -56 -63 -3 -5 -6 -8 -32 -33 -35 -46 -48 -53 0
-11 -38 -51 -56 -63 -65 -3 -5 -6 -8 -9 -32 -33 -35 -36 -46 -48 -49 -53 -54 -61 0
-65 -63 -56 -51 -38 -11 -61 -54 -49 -36 -9 -53 -48 -35 -8 -46 -33 -6 -32 -5 -3 0
-3 -5 -6 -8 -10 -11 -32 -33 -35 -37 -38 -46 -48 -50 -51 -53 -55 -56 -62 -63 -66 0
-11 -10 -8 -6 -5 -3 -66 -63 -56 -51 -38 -62 -55 -50 -37 -53 -48 -35 -46 -33 -32 0
-3 -38 -37 -35 -33 -32 -11 -10 -8 -6 -5 -66 -63 -56 -51 -62 -55 -50 -53 -48 -46 0
-32 -33 -35 -37 -38 -3 -46 -48 -50 -51 -5 -53 -55 -56 -6 -62 -63 -8 -66 -10 -11 0
-32 -5 -51 -50 -48 -46 -3 -38 -37 -35 -33 -11 -10 -8 -6 -66 -63 -56 -62 -55 -53 0
-46 -48 -50 -51 -5 -32 -53 -55 -56 -6 -33 -62 -63 -8 -35 -66 -10 -37 -11 -38 -3 0
-46 -33 -6 -56 -55 -53 -32 -5 -51 -50 -48 -3 -38 -37 -35 -11 -10 -8 -66 -63 -62 0
-53 -55 -56 -6 -33 -46 -62 -63 -8 -35 -48 -66 -10 -37 -50 -11 -38 -51 -3 -5 -32 0
-53 -48 -35 -8 -63 -62 -46 -33 -6 -56 -55 -32 -5 -51 -50 -3 -38 -37 -11 -10 -66 0
-62 -63 -8 -35 -48 -53 -66 -10 -37 -50 -55 -11 -38 -51 -56 -3 -5 -6 -32 -33 -46 0
-62 -55 -50 -37 -10 -66 -53 -48 -35 -8 -63 -46 -33 -6 -56 -32 -5 -51 -3 -38 -11 0
-66 -10 -37 -50 -55 -62 -11 -38 -51 -56 -63 -3 -5 -6 -8 -32 -33 -35 -46 -48 -53 0
-11 -38 -51 -56 -63 -66 -3 -5 -6 -8 -10 -32 -33 -35 -37 -46 -48 -50 -53 -55 -62 0
-66 -63 -56 -51 -38 -11 -62 -55 -50 -37 -10 -53 -48 -35 -8 -46 -33 -6 -32 -5 -3 0
-3 -5 -6 -9 -10 -11 -32 -33 -36 -37 -38 -46 -49 -50 -51 -54 -55 -56 -64 -65 -66 0
-11 -10 -9 -6 -5 -3 -66 -65 -56 -51 -38 -64 -55 -50 -37 -54 -49 -36 -46 -33 -32 0
-3 -38 -37 -36 -33 -32 -11 -10 -9 -6 -5 -66 -65 -56 -51 -64 -55 -50 -54 -49 -46 0
-32 -33 -36 -37 -38 -3 -46 -49 -50 -51 -5 -54 -55 -56 -6 -64 -65 -9 -66 -10 -11 0
-32 -5 -51 -50 -49 -46 -3 -38 -37 -36 -33 -11 -10 -9 -6 -66 -65 -56 -64 -55 -54 0
-46 -49 -50 -51 -5 -32 -54 -55 -56 -6 -33 -64 -65 -9 -36 -66 -10 -37 -11 -38 -3 0
-46 -33 -6 -56 -55 -54 -32 -5 -51 -50 -49 -3 -38 -37 -36 -11 -10 -9 -66 -65 -64 0
-54 -55 -56 -6 -33 -46 -64 -65 -9 -36 -49 -66 -10 -37 -50 -11 -38 -51 -3 -5 -32 0
-54 -49 -36 -9 -65 -64 -46 -33 -6 -56 -55 -32 -5 -51 -50 -3 -38 -37 -11 -10 -66 0
-64 -65 -9 -36 -49 -54 -66 -10 -37 -50 -55 -11 -38 -51 -56 -3 -5 -6 -32 -33 -46 0
-64 -55 -50 -37 -10 -66 -54 -49 -36 -9 -65 -46 -33 -6 -56 -32 -5 -51 -3 -38 -11 0
-66 -10 -37 -50 -55 -64 -11 -38 -51 -56 -65 -3 -5 -6 -9 -32 -33 -36 -46 -49 -54 0
-11 -38 -51 -56 -65 -66 -3 -5 -6 -9 -10 -32 -33 -36 -37 -46 -49 -50 -54 -55 -64 0
-66 -65 -56 -51 -38 -11 -64 -55 -50 -37 -10 -54 -49 -36 -9 -46 -33 -6 -32 -5 -3 0
-3 -5 -7 -8 -9 -10 -32 -34 -35 -36 -37 -47 -48 -49 -50 -57 -58 -59 -61 -62 -64 0
-10 -9 -8 -7 -5 -3 -64 -62 -59 -50 -37 -61 -58 -49 -36 -57 -48 -35 -47 -34 -32 0
-3 -37 -36 -35 -34 -32 -10 -9 -8 -7 -5 -64 -62 -59 -50 -61 -58 -49 -57 -48 -47 0
-32 -34 -35 -36 -37 -3 -47 -48 -49 -50 -5 -57 -58 -59 -7 -61 -62 -8 -64 -9 -10 0
-32 -5 -50 -49 -48 -47 -3 -37 -36 -35 -34 -10 -9 -8 -7 -64 -62 -59 -61 -58 -57 0
-47 -48 -49 -50 -5 -32 -57 -58 -59 -7 -34 -61 -62 -8 -35 -64 -9 -36 -10 -37 -3 0
-47 -34 -7 -59 -58 -57 -32 -5 -50 -49 -48 -3 -37 -36 -35 -10 -9 -8 -64 -62 -61 0
-57 -58 -59 -7 -34 -47 -61 -62 -8 -35 -48 -64 -9 -36 -49 -10 -37 -50 -3 -5 -32 0
-57 -48 -35 -8 -62 -61 -47 -34 -7 -59 -58 -32 -5 -50 -49 -3 -37 -36 -10 -9 -64 0
-61 -62 -8 -35 -48 -57 -64 -9 -36 -49 -58 -10 -37 -50 -59 -3 -5 -7 -32 -34 -47 0
-61 -58 -49 -36 -9 -64 -57 -48 -35 -8 -62 -47 -34 -7 -59 -32 -5 -50 -3 -37 -10 0
-64 -9 -36 -49 -58 -61 -10 -37 -50 -59 -62 -3 -5 -7 -8 -32 -34 -35 -47 -48 -57 0
-10 -37 -50 -59 -62 -64 -3 -5 -7 -8 -9 -32 -34 -35 -36 -47 -48 -49 -57 -58 -61 0
-64 -62 -59 -50 -37 -10 -61 -58 -49 -36 -9 -57 -48 -35 -8 -47 -34 -7 -32 -5 -3 0
-3 -5 -7 -8 -9 -11 -32 -34 -35 -36 -38 -47 -48 -49 -51 -57 -58 -60 -61 -63 -65 0
-11 -9 -8 -7 -5 -3 -65 -63 -60 -51 -38 -61 -58 -49 -36 -57 -48 -35 -47 -34 -32 0
-3 -38 -36 -35 -34 -32 -11 -9 -8 -7 -5 -65 -63 -60 -51 -61 -58 -49 -57 -48 -47 0
-32 -34 -35 -36 -38 -3 -47 -48 -49 -51 -5 -57 -58 -60 -7 -61 -63 -8 -65 -9 -11 0
-32 -5 -51 -49 -48 -47 -3 -38 -36 -35 -34 -11 -9 -8 -7 -65 -63 -60 -61 -58 -57 0
-47 -48 -49 -51 -5 -32 -57 -58 -60 -7 -34 -61 -63 -8 -35 -65 -9 -36 -11 -38 -3 0
-47 -34 -7 -60 -58 -57 -32 -5 -51 -49 -48 -3 -38 -36 -35 -11 -9 -8 -65 -63 -61 0
-57 -58 -60 -7 -34 -47 -61 -63 -8 -35 -48 -65 -9 -36 -49 -11 -38 -51 -3 -5 -32 0
-57 -48 -35 -8 -63 -61 -47 -34 -7 -60 -58 -32 -5 -51 -49 -3 -38 -36 -11 -9 -65 0
-61 -63 -8 -35 -48 -57 -65 -9 -36 -49 -58 -11 -38 -51 -60 -3 -5 -7 -32 -34 -47 0
-61 -58 -49 -36 -9 -65 -57 -48 -35 -8 -63 -47 -34 -7 -60 -32 -5 -51 -3 -38 -11 0
-65 -9 -36 -49 -58 -61 -11 -38 -51 -60 -63 -3 -5 -7 -8 -32 -34 -35 -47 -48 -57 0
-11 -38 -51 -60 -63 -65 -3 -5 -7 -8 -9 -32 -34 -35 -36 -47 -48 -49 -57 -58 -61 0
-65 -63 -60 -51 -38 -11 -61 -58 -49 -36 -9 -57 -48 -35 -8 -47 -34 -7 -32 -5 -3 0
-3 -5 -7 -8 -10 -11 -32 -34 -35 -37 -38 -47 -48 -50 -51 -57 -59 -60 -62 -63 -66 0
-11 -10 -8 -7 -5 -3 -66 -63 -60 -51 -38 -62 -59 -50 -37 -57 -48 -35 -47 -34 -32 0
-3 -38 -37 -35 -34 -32 -11 -10 -8 -7 -5 -66 -63 -60 -51 -62 -59 -50 -57 -48 -47 0
-32 -34 -35 -37 -38 -3 -47 -48 -50 -51 -5 -57 -59 -60 -7 -62 -63 -8 -66 -10 -11 0
-32 -5 -51 -50 -48 -47 -3 -38 -37 -35 -34 -11 -10 -8 -7 -66 -63 -60 -62 -59 -57 0
-47 -48 -50 -51 -5 -32 -57 -59 -60 -7 -34 -62 -63 -8 -35 -66 -10 -37 -11 -38 -3 0
-47 -34 -7 -60 -59 -57 -32 -5 -51 -50 -48 -3 -38 -37 -35 -11 -10 -8 -66 -63 -62 0
-57 -59 -60 -7 -34 -47 -62 -63 -8 -35 -48 -66 -10 -37 -50 -11 -38 -51 -3 -5 -32 0
-57 -48 -35 -8 -63 -62 -47 -34 -7 -60 -59 -32 -5 -51 -50 -3 -38 -37 -11 -10 -66 0
-62 -63 -8 -35 -48 -57 -66 -10 -37 -50 -59 -11 -38 -51 -60 -3 -5 -7 -32 -34 -47 0
-62 -59 -50 -37 -10 -66 -57 -48 -35 -8 -63 -47 -34 -7 -60 -32 -5 -51 -3 -38 -11 0
-66 -10 -37 -50 -59 -62 -11 -38 -51 -60 -63 -3 -5 -7 -8 -32 -34 -35 -47 -48 -57 0
-11 -38 -51 -60 -63 -66 -3 -5 -7 -8 -10 -32 -34 -35 -37 -47 -48 -50 -57 -59 -62 0
-66 -63 -60 -51 -38 -11 -62 -59 -50 -37 -10 -57 -48 -35 -8 -47 -34 -7 -32 -5 -3 0
-3 -5 -7 -9 -10 -11 -32 -34 -36 -37 -38 -47 -49 -50 -51 -58 -59 -60 -64 -65 -66 0
-11 -10 -9 -7 -5 -3 -66 -65 -60 -51 -38 -64 -59 -50 -37 -58 -49 -36 -47 -34 -32 0
-3 -38 -37 -36 -34 -32 -11 -10 -9 -7 -5 -66 -65 -60 -51 -64 -59 -50 -58 -49 -47 0
-32 -34 -36 -37 -38 -3 -47 -49 -50 -51 -5 -58 -59 -60 -7 -64 -65 -9 -66 -10 -11 0
-32 -5 -51 -50 -49 -47 -3 -38 -37 -36 -34 -11 -10 -9 -7 -66 -65 -60 -64 -59 -58 0
-47 -49 -50 -51 -5 -32 -58 -59 -60 -7 -34 -64 -65 -9 -36 -66 -10 -37 -11 -38 -3 0
-47 -34 -7 -60 -59 -58 -32 -5 -51 -50 -49 -3 -38 -37 -36 -11 -10 -9 -66 -65 -64 0
-58 -59 -60 -7 -34 -47 -64 -65 -9 -36 -49 -66 -10 -37 -50 -11 -38 -51 -3 -5 -32 0
-58 -49 -36 -9 -65 -64 -47 -34 -7 -60 -59 -32 -5 -51 -50 -3 -38 -37 -11 -10 -66 0
-64 -65 -9 -36 -49 -58 -66 -10 -37 -50 -59 -11 -38 -51 -60 -3 -5 -7 -32 -34 -47 0
-64 -59 -50 -37 -10 -66 -58 -49 -36 -9 -65 -47 -34 -7 -60 -32 -5 -51 -3 -38 -11 0
-66 -10 -37 -50 -59 -64 -11 -38 -51 -60 -65 -3 -5 -7 -9 -32 -34 -36 -47 -49 -58 0
-11 -38 -51 -60 -65 -66 -3 -5 -7 -9 -10 -32 -34 -36 -37 -47 -49 -50 -58 -59 -64 0
-66 -65 -60 -51 -38 -11 -64 -59 -50 -37 -10 -58 -49 -36 -9 -47 -34 -7 -32 -5 -3 0
-3 -5 -8 -9 -10 -11 -32 -35 -36 -37 -38 -48 -49 -50 -51 -61 -62 -63 -64 -65 -66 0
-11 -10 -9 -8 -5 -3 -66 -65 -63 -51 -38 -64 -62 -50 -37 -61 -49 -36 -48 -35 -32 0
-3 -38 -37 -36 -35 -32 -11 -10 -9 -8 -5 -66 -65 -63 -51 -64 -62 -50 -61 -49 -48 0
-32 -35 -36 -37 -38 -3 -48 -49 -50 -51 -5 -61 -62 -63 -8 -64 -65 -9 -66 -10 -11 0
-32 -5 -51 -50 -49 -48 -3 -38 -37 -36 -35 -11 -10 -9 -8 -66 -65 -63 -64 -62 -61 0
-48 -49 -50 -51 -5 -32 -61 -62 -63 -8 -35 -64 -65 -9 -36 -66 -10 -37 -11 -38 -3 0
-48 -35 -8 -63 -62 -61 -32 -5 -51 -50 -49 -3 -38 -37 -36 -11 -10 -9 -66 -65 -64 0
-61 -62 -63 -8 -35 -48 -64 -65 -9 -36 -49 -66 -10 -37 -50 -11 -38 -51 -3 -5 -32 0
-61 -49 -36 -9 -65 -64 -48 -35 -8 -63 -62 -32 -5 -51 -50 -3 -38 -37 -11 -10 -66 0
-64 -65 -9 -36 -49 -61 -66 -10 -37 -50 -62 -11 -38 -51 -63 -3 -5 -8 -32 -35 -48 0
-64 -62 -50 -37 -10 -66 -61 -49 -36 -9 -65 -48 -35 -8 -63 -32 -5 -51 -3 -38 -11 0
-66 -10 -37 -50 -62 -64 -11 -38 -51 -63 -65 -3 -5 -8 -9 -32 -35 -36 -48 -49 -61 0
-11 -38 -51 -63 -65 -66 -3 -5 -8 -9 -10 -32 -35 -36 -37 -48 -49 -50 -61 -62 -64 0
-66 -65 -63 -51 -38 -11 -64 -62 -50 -37 -10 -61 -49 -36 -9 -48 -35 -8 -32 -5 -3 0
-3 -6 -7 -8 -9 -10 -33 -34 -35 -36 -37 -52 -53 -54 -55 -57 -58 -59 -61 -62 -64 0
-10 -9 -8 -7 -6 -3 -64 -62 -59 -55 -37 -61 -58 -54 -36 -57 -53 -35 -52 -34 -33 0
-3 -37 -36 -35 -34 -33 -10 -9 -8 -7 -6 -64 -62 -59 -55 -61 -58 -54 -57 -53 -52 0
-33 -34 -35 -36 -37 -3 -52 -53 -54 -55 -6 -57 -58 -59 -7 -61 -62 -8 -64 -9 -10 0
-33 -6 -55 -54 -53 -52 -3 -37 -36 -35 -34 -10 -9 -8 -7 -64 -62 -59 -61 -58 -57 0
-52 -53 -54 -55 -6 -33 -57 -58 -59 -7 -34 -61 -62 -8 -35 -64 -9 -36 -10 -37 -3 0
-52 -34 -7 -59 -58 -57 -33 -6 -55 -54 -53 -3 -37 -36 -35 -10 -9 -8 -64 -62 -61 0
-57 -58 -59 -7 -34 -52 -61 -62 -8 -35 -53 -64 -9 -36 -54 -10 -37 -55 -3 -6 -33 0
-57 -53 -35 -8 -62 -61 -52 -34 -7 -59 -58 -33 -6 -55 -54 -3 -37 -36 -10 -9 -64 0
-61 -62 -8 -35 -53 -57 -64 -9 -36 -54 -58 -10 -37 -55 -59 -3 -6 -7 -33 -34 -52 0
-61 -58 -54 -36 -9 -64 -57 -53 -35 -8 -62 -52 -34 -7 -59 -33 -6 -55 -3 -37 -10 0
-64 -9 -36 -54 -58 -61 -10 -37 -55 -59 -62 -3 -6 -7 -8 -33 -34 -35 -52 -53 -57 0
-10 -37 -55 -59 -62 -64 -3 -6 -7 -8 -9 -33 -34 -35 -36 -52 -53 -54 -57 -58 -61 0
-64 -62 -59 -55 -37 -10 -61 -58 -54 -36 -9 -57 -53 -35 -8 -52 -34 -7 -33 -6 -3 0
-3 -6 -7 -8 -9 -11 -33 -34 -35 -36 -38 -52 -53 -54 -56 -57 -58 -60 -61 -63 -65 0
-11 -9 -8 -7 -6 -3 -65 -63 -60 -56 -38 -61 -58 -54 -36 -57 -53 -35 -52 -34 -33 0
-3 -38 -36 -35 -34 -33 -11 -9 -8 -7 -6 -65 -63 -60 -56 -61 -58 -54 -57 -53 -52 0
-33 -34 -35 -36 -38 -3 -52 -53 -54 -56 -6 -57 -58 -60 -7 -61 -63 -8 -65 -9 -11 0
-33 -6 -56 -54 -53 -52 -3 -38 -36 -35 -34 -11 -9 -8 -7 -65 -63 -60 -61 -58 -57 0
-52 -53 -54 -56 -6 -33 -57 -58 -60 -7 -34 -61 -63 -8 -35 -65 -9 -36 -11 -38 -3 0
-52 -34 -7 -60 -58 -57 -33 -6 -56 -54 -53 -3 -38 -36 -35 -11 -9 -8 -65 -63 -61 0
-57 -58 -60 -7 -34 -52 -61 -63 -8 -35 -53 -65 -9 -36 -54 -11 -38 -56 -3 -6 -33 0
-57 -53 -35 -8 -63 -61 -52 -34 -7 -60 -58 -33 -6 -56 -54 -3 -38 -36 -11 -9 -65 0
-61 -63 -8 -35 -53 -57 -65 -9 -36 -54 -58 -11 -38 -56 -60 -3 -6 -7 -33 -34 -52 0
-61 -58 -54 -36 -9 -65 -57 -53 -35 -8 -63 -52 -34 -7 -60 -33 -6 -56 -3 -38 -11 0
-65 -9 -36 -54 -58 -61 -11 -38 -56 -60 -63 -3 -6 -7 -8 -33 -34 -35 -52 -53 -57 0
-11 -38 -56 -60 -63 -65 -3 -6 -7 -8 -9 -33 -34 -35 -36 -52 -53 -54 -57 -58 -61 0
-65 -63 -60 -56 -38 -11 -61 -58 -54 -36 -9 -57 -53 -35 -8 -52 -34 -7 -33 -6 -3 0
-3 -6 -7 -8 -10 -11 -33 -34 -35 -37 -38 -52 -53 -55 -56 -57 -59 -60 -62 -63 -66 0
-11 -10 -8 -7 -6 -3 -66 -63 -60 -56 -38 -62 -59 -55 -37 -57 -53 -35 -52 -34 -33 0
-3 -38 -37 -35 -34 -33 -11 -10 -8 -7 -6 -66 -63 -60 -56 -62 -59 -55 -57 -53 -52 0
-33 -34 -35 -37 -38 -3 -52 -53 -55 -56 -6 -57 -59 -60 -7 -62 -63 -8 -66 -10 -11 0
-33 -6 -56 -55 -53 -52 -3 -38 -37 -35 -34 -11 -10 -8 -7 -66 -63 -60 -62 -59 -57 0
-52 -53 -55 -56 -6 -33 -57 -59 -60 -7 -34 -62 -63 -8 -35 -66 -10 -37 -11 -38 -3 0
-52 -34 -7 -60 -59 -57 -33 -6 -56 -55 -53 -3 -38 -37 -35 -11 -10 -8 -66 -63 -62 0
-57 -59 -60 -7 -34 -52 -62 -63 -8 -35 -53 -66 -10 -37 -55 -11 -38 -56 -3 -6 -33 0
-57 -53 -35 -8 -63 -62 -52 -34 -7 -60 -59 -33 -6 -56 -55 -3 -38 -37 -11 -10 -66 0
-62 -63 -8 -35 -53 -57 -66 -10 -37 -55 -59 -11 -38 -56 -60 -3 -6 -7 -33 -34 -52 0
-62 -59 -55 -37 -10 -66 -57 -53 -35 -8 -63 -52 -34 -7 -60 -33 -6 -56 -3 -38 -11 0
-66 -10 -37 -55 -59 -62 -11 -38 -56 -60 -63 -3 -6 -7 -8 -33 -34 -35 -52 -53 -57 0
-11 -38 -56 -60 -63 -66 -3 -6 -7 -8 -10 -33 -34 -35 -37 -52 -53 -55 -57 -59 -62 0
-66 -63 -60 -56 -38 -11 -62 -59 -55 -37 -10 -57 -53 -35 -8 -52 -34 -7 -33 -6 -3 0
-3 -6 -7 -9 -10 -11 -33 -34 -36 -37 -38 -52 -54 -55 -56 -58 -59 -60 -64 -65 -66 0
-11 -10 -9 -7 -6 -3 -66 -65 -60 -56 -38 -64 -59 -55 -37 -58 -54 -36 -52 -34 -33 0
-3 -38 -37 -36 -34 -33 -11 -10 -9 -7 -6 -66 -65 -60 -56 -64 -59 -55 -58 -54 -52 0
-33 -34 -36 -37 -38 -3 -52 -54 -55 -56 -6 -58 -59 -60 -7 -64 -65 -9 -66 -10 -11 0
-33 -6 -56 -55 -54 -52 -3 -38 -37 -36 -34 -11 -10 -9 -7 -66 -65 -60 -64 -59 -58 0
-52 -54 -55 -56 -6 -33 -58 -59 -60 -7 -34 -64 -65 -9 -36 -66 -10 -37 -11 -38 -3 0
-52 -34 -7 -60 -59 -58 -33 -6 -56 -55 -54 -3 -38 -37 -36 -11 -10 -9 -66 -65 -64 0
-58 -59 -60 -7 -34 -52 -64 -65 -9 -36 -54 -66 -10 -37 -55 -11 -38 -56 -3 -6 -33 0
-58 -54 -36 -9 -65 -64 -52 -34 -7 -60 -59 -33 -6 -56 -55 -3 -38 -37 -11 -10 -66 0
-64 -65 -9 -36 -54 -58 -66 -10 -37 -55 -59 -11 -38 -56 -60 -3 -6 -7 -33 -34 -52 0
-64 -59 -55 -37 -10 -66 -58 -54 -36 -9 -65 -52 -34 -7 -60 -33 -6 -56 -3 -38 -11 0
-66 -10 -37 -55 -59 -64 -11 -38 -56 -60 -65 -3 -6 -7 -9 -33 -34 -36 -52 -54 -58 0
-11 -38 -56 -60 -65 -66 -3 -6 -7 -9 -10 -33 -34 -36 -37 -52 -54 -55 -58 -59 -64 0
-66 -65 -60 -56 -38 -11 -64 -59 -55 -37 -10 -58 -54 -36 -9 -52 -34 -7 -33 -6 -3 0
-3 -6 -8 -9 -10 -11 -33 -35 -36 -37 -38 -53 -54 -55 -56 -61 -62 -63 -64 -65 -66 0
-11 -10 -9 -8 -6 -3 -66 -65 -63 -56 -38 -64 -62 -55 -37 -61 -54 -36 -53 -35 -33 0
-3 -38 -37 -36 -35 -33 -11 -10 -9 -8 -6 -66 -65 -63 -56 -64 -62 -55 -61 -54 -53 0
-33 -35 -36 -37 -38 -3 -53 -54 -55 -56 -6 -61 -62 -63 -8 -64 -65 -9 -66 -10 -11 0
-33 -6 -56 -55 -54 -53 -3 -38 -37 -36 -35 -11 -10 -9 -8 -66 -65 -63 -64 -62 -61 0
-53 -54 -55 -56 -6 -33 -61 -62 -63 -8 -35 -64 -65 -9 -36 -66 -10 -37 -11 -38 -3 0
-53 -35 -8 -63 -62 -61 -33 -6 -56 -55 -54 -3 -38 -37 -36 -11 -10 -9 -66 -65 -64 0
-61 -62 -63 -8 -35 -53 -64 -65 -9 -36 -54 -66 -10 -37 -55 -11 -38 -56 -3 -6 -33 0
-61 -54 -36 -9 -65 -64 -53 -35 -8 -63 -62 -33 -6 -56 -55 -3 -38 -37 -11 -10 -66 0
-64 -65 -9 -36 -54 -61 -66 -10 -37 -55 -62 -11 -38 -56 -63 -3 -6 -8 -33 -35 -53 0
-64 -62 -55 -37 -10 -66 -61 -54 -36 -9 -65 -53 -35 -8 -63 -33 -6 -56 -3 -38 -11 0
-66 -10 -37 -55 -62 -64 -11 -38 -56 -63 -65 -3 -6 -8 -9 -33 -35 -36 -53 -54 -61 0
-11 -38 -56 -63 -65 -66 -3 -6 -8 -9 -10 -33 -35 -36 -37 -53 -54 -55 -61 -62 -64 0
-66 -65 -63 -56 -38 -11 -64 -62 -55 -37 -10 -61 -54 -36 -9 -53 -35 -8 -33 -6 -3 0
-3 -7 -8 -9 -10 -11 -34 -35 -36 -37 -38 -57 -58 -59 -60 -61 -62 -63 -64 -65 -66 0
-11 -10 -9 -8 -7 -3 -66 -65 -63 -60 -38 -64 -62 -59 -37 -61 -58 -36 -57 -35 -34 0
-3 -38 -37 -36 -35 -34 -11 -10 -9 -8 -7 -66 -65 -63 -60 -64 -62 -59 -61 -58 -57 0
-34 -35 -36 -37 -38 -3 -57 -58 -59 -60 -7 -61 -62 -63 -8 -64 -65 -9 -66 -10 -11 0
-34 -7 -60 -59 -58 -57 -3 -38 -37 -36 -35 -11 -10 -9 -8 -66 -65 -63 -64 -62 -61 0
-57 -58 -59 -60 -7 -34 -61 -62 -63 -8 -35 -64 -65 -9 -36 -66 -10 -37 -11 -38 -3 0
-57 -35 -8 -63 -62 -61 -34 -7 -60 -59 -58 -3 -38 -37 -36 -11 -10 -9 -66 -65 -64 0
-61 -62 -63 -8 -35 -57 -64 -65 -9 -36 -58 -66 -10 -37 -59 -11 -38 -60 -3 -7 -34 0
-61 -58 -36 -9 -65 -64 -57 -35 -8 -63 -62 -34 -7 -60 -59 -3 -38 -37 -11 -10 -66 0
-64 -65 -9 -36 -58 -61 -66 -10 -37 -59 -62 -11 -38 -60 -63 -3 -7 -8 -34 -35 -57 0
-64 -62 -59 -37 -10 -66 -61 -58 -36 -9 -65 -57 -35 -8 -63 -34 -7 -60 -3 -38 -11 0
-66 -10 -37 -59 -62 -64 -11 -38 -60 -63 -65 -3 -7 -8 -9 -34 -35 -36 -57 -58 -61 0
-11 -38 -60 -63 -65 -66 -3 -7 -8 -9 -10 -34 -35 -36 -37 -57 -58 -59 -61 -62 -64 0
-66 -65 -63 -60 -38 -11 -64 -62 -59 -37 -10 -61 -58 -36 -9 -57 -35 -8 -34 -7 -3 0
-4 -5 -6 -7 -8 -9 -39 -40 -41 -42 -43 -46 -47 -48 -49 -52 -53 -54 -57 -58 -61 0
-9 -8 -7 -6 -5 -4 -61 -58 -54 -49 -43 -57 -53 -48 -42 -52 -47 -41 -46 -40 -39 0
-4 -43 -42 -41 -40 -39 -9 -8 -7 -6 -5 -61 -58 -54 -49 -57 -53 -48 -52 -47 -46 0
-39 -40 -41 -42 -43 -4 -46 -47 -48 -49 -5 -52 -53 -54 -6 -57 -58 -7 -61 -8 -9 0
-39 -5 -49 -48 -47 -46 -4 -43 -42 -41 -40 -9 -8 -7 -6 -61 -58 -54 -57 -53 -52 0
-46 -47 -48 -49 -5 -39 -52 -53 -54 -6 -40 -57 -58 -7 -41 -61 -8 -42 -9 -43 -4 0
-46 -40 -6 -54 -53 -52 -39 -5 -49 -48 -47 -4 -43 -42 -41 -9 -8 -7 -61 -58 -57 0
-52 -53 -54 -6 -40 -46 -57 -58 -7 -41 -47 -61 -8 -42 -48 -9 -43 -49 -4 -5 -39 0
-52 -47 -41 -7 -58 -57 -46 -40 -6 -54 -53 -39 -5 -49 -48 -4 -43 -42 -9 -8 -61 0
-57 -58 -7 -41 -47 -52 -61 -8 -42 -48 -53 -9 -43 -49 -54 -4 -5 -6 -39 -40 -46 0
-57 -53 -48 -42 -8 -61 -52 -47 -41 -7 -58 -46 -40 -6 -54 -39 -5 -49 -4 -43 -9 0
-61 -8 -42 -48 -53 -57 -9 -43 -49 -54 -58 -4 -5 -6 -7 -39 -40 -41 -46 -47 -52 0
-9 -43 -49 -54 -58 -61 -4 -5 -6 -7 -8 -39 -40 -41 -42 -46 -47 -48 -52 -53 -57 0
-61 -58 -54 -49 -43 -9 -57 -53 -48 -42 -8 -52 -47 -41 -7 -46 -40 -6 -39 -5 -4 0
-4 -5 -6 -7 -8 -10 -39 -40 -41 -42 -44 -46 -47 -48 -50 -52 -53 -55 -57 -59 -62 0
-10 -8 -7 -6 -5 -4 -62 -59 -55 -50 -44 -57 -53 -48 -42 -52 -47 -41 -46 -40 -39 0
-4 -44 -42 -41 -40 -39 -10 -8 -7 -6 -5 -62 -59 -55 -50 -57 -53 -48 -52 -47 -46 0
-39 -40 -41 -42 -44 -4 -46 -47 -48 -50 -5 -52 -53 -55 -6 -57 -59 -7 -62 -8 -10 0
-39 -5 -50 -48 -47 -46 -4 -44 -42 -41 -40 -10 -8 -7 -6 -62 -59 -55 -57 -53 -52 0
-46 -47 -48 -50 -5 -39 -52 -53 -55 -6 -40 -57 -59 -7 -41 -62 -8 -42 -10 -44 -4 0
-46 -40 -6 -55 -53 -52 -39 -5 -50 -48 -47 -4 -44 -42 -41 -10 -8 -7 -62 -59 -57 0
-52 -53 -55 -6 -40 -46 -57 -59 -7 -41 -47 -62 -8 -42 -48 -10 -44 -50 -4 -5 -39 0
-52 -47 -41 -7 -59 -57 -46 -40 -6 -55 -53 -39 -5 -50 -48 -4 -44 -42 -10 -8 -62 0
-57 -59 -7 -41 -47 -52 -62 -8 -42 -48 -53 -10 -44 -50 -55 -4 -5 -6 -39 -40 -46 0
-57 -53 -48 -42 -8 -62 -52 -47 -41 -7 -59 -46 -40 -6 -55 -39 -5 -50 -4 -44 -10 0
-62 -8 -42 -48 -53 -57 -10 -44 -50 -55 -59 -4 -5 -6 -7 -39 -40 -41 -46 -47 -52 0
-10 -44 -50 -55 -59 -62 -4 -5 -6 -7 -8 -39 -40 -41 -42 -46 -47 -48 -52 -53 -57 0
-62 -59 -55 -50 -44 -10 -57 -53 -48 -42 -8 -52 -47 -41 -7 -46 -40 -6 -39 -5 -4 0
-4 -5 -6 -7 -8 -11 -39 -40 -41 -42 -45 -46 -47 -48 -51 -52 -53 -56 -57 -60 -63 0
-11 -8 -7 -6 -5 -4 -63 -60 -56 -51 -45 -57 -53 -48 -42 -52 -47 -41 -46 -40 -39 0
-4 -45 -42 -41 -40 -39 -11 -8 -7 -6 -5 -63 -60 -56 -51 -57 -53 -48 -52 -47 -46 0
-39 -40 -41 -42 -45 -4 -46 -47 -48 -51 -5 -52 -53 -56 -6 -57 -60 -7 -63 -8 -11 0
-39 -5 -51 -48 -47 -46 -4 -45 -42 -41 -40 -11 -8 -7 -6 -63 -60 -56 -57 -53 -52 0
-46 -47 -48 -51 -5 -39 -52 -53 -56 -6 -40 -57 -60 -7 -41 -63 -8 -42 -11 -45 -4 0
-46 -40 -6 -56 -53 -52 -39 -5 -51 -48 -47 -4 -45 -42 -41 -11 -8 -7 -63 -60 -57 0
-52 -53 -56 -6 -40 -46 -57 -60 -7 -41 -47 -63 -8 -42 -48 -11 -45 -51 -4 -5 -39 0
-52 -47 -41 -7 -60 -57 -46 -40 -6 -56 -53 -39 -5 -51 -48 -4 -45 -42 -11 -8 -63 0
-57 -60 -7 -41 -47 -52 -63 -8 -42 -48 -53 -11 -45 -51 -56 -4 -5 -6 -39 -40 -46 0
-57 -53 -48 -42 -8 -63 -52 -47 -41 -7 -60 -46 -40 -6 -56 -39 -5 -51 -4 -45 -11 0
-63 -8 -42 -48 -53 -57 -11 -45 -51 -56 -60 -4 -5 -6 -7 -39 -40 -41 -46 -47 -52 0
-11 -45 -51 -56 -60 -63 -4 -5 -6 -7 -8 -39 -40 -41 -42 -46 -47 -48 -52 -53 -57 0
-63 -60 -56 -51 -45 -11 -57 -53 -48 -42 -8 -52 -47 -41 -7 -46 -40 -6 -39 -5 -4 0
-4 -5 -6 -7 -9 -10 -39 -40 -41 -43 -44 -46 -47 -49 -50 -52 -54 -55 -58 -59 -64 0
-10 -9 -7 -6 -5 -4 -64 -59 -55 -50 -44 -58 -54 -49 -43 -52 -47 -41 -46 -40 -39 0
-4 -44 -43 -41 -40 -39 -10 -9 -7 -6 -5 -64 -59 -55 -50 -58 -54 -49 -52 -47 -46 0
-39 -40 -41 -43 -44 -4 -46 -47 -49 -50 -5 -52 -54 -55 -6 -58 -59 -7 -64 -9 -10 0
-39 -5 -50 -49 -47 -46 -4 -44 -43 -41 -40 -10 -9 -7 -6 -64 -59 -55 -58 -54 -52 0
-46 -47 -49 -50 -5 -39 -52 -54 -55 -6 -40 -58 -59 -7 -41 -64 -9 -43 -10 -44 -4 0
-46 -40 -6 -55 -54 -52 -39 -5 -50 -49 -47 -4 -44 -43 -41 -10 -9 -7 -64 -59 -58 0
-52 -54 -55 -6 -40 -46 -58 -59 -7 -41 -47 -64 -9 -43 -49 -10 -44 -50 -4 -5 -39 0
-52 -47 -41 -7 -59 -58 -46 -40 -6 -55 -54 -39 -5 -50 -49 -4 -44 -43 -10 -9 -64 0
-58 -59 -7 -41 -47 -52 -64 -9 -43 -49 -54 -10 -44 -50 -55 -4 -5 -6 -39 -40 -46 0
-58 -54 -49 -43 -9 -64 -52 -47 -41 -7 -59 -46 -40 -6 -55 -39 -5 -50 -4 -44 -10 0
-64 -9 -43 -49 -54 -58 -10 -44 -50 -55 -59 -4 -5 -6 -7 -39 -40 -41 -46 -47 -52 0
-10 -44 -50 -55 -59 -64 -4 -5 -6 -7 -9 -39 -40 -41 -43 -46 -47 -49 -52 -54 -58 0
-64 -59 -55 -50 -44 -10 -58 -54 -49 -43 -9 -52 -47 -41 -7 -46 -40 -6 -39 -5 -4 0
-4 -5 -6 -7 -9 -11 -39 -40 -41 -43 -45 -46 -47 -49 -51 -52 -54 -56 -58 -60 -65 0
-11 -9 -7 -6 -5 -4 -65 -60 -56 -51 -45 -58 -54 -49 -43 -52 -47 -41 -46 -40 -39 0
-4 -45 -43 -41 -40 -39 -11 -9 -7 -6 -5 -65 -60 -56 -51 -58 -54 -49 -52 -47 -46 0
-39 -40 -41 -43 -45 -4 -46 -47 -49 -51 -5 -52 -54 -56 -6 -58 -60 -7 -65 -9 -11 0
-39 -5 -51 -49 -47 -46 -4 -45 -43 -41 -40 -11 -9 -7 -6 -65 -60 -56 -58 -54 -52 0
-46 -47 -49 -51 -5 -39 -52 -54 -56 -6 -40 -58 -60 -7 -41 -65 -9 -43 -11 -45 -4 0
-46 -40 -6 -56 -54 -52 -39 -5 -51 -49 -47 -4 -45 -43 -41 -11 -9 -7 -65 -60 -58 0
-52 -54 -56 -6 -40 -46 -58 -60 -7 -41 -47 -65 -9 -43 -49 -11 -45 -51 -4 -5 -39 0
-52 -47 -41 -7 -60 -58 -46 -40 -6 -56 -54 -39 -5 -51 -49 -4 -45 -43 -11 -9 -65 0
-58 -60 -7 -41 -47 -52 -65 -9 -43 -49 -54 -11 -45 -51 -56 -4 -5 -6 -39 -40 -46 0
-58 -54 -49 -43 -9 -65 -52 -47 -41 -7 -60 -46 -40 -6 -56 -39 -5 -51 -4 -45 -11 0
-65 -9 -43 -49 -54 -58 -11 -45 -51 -56 -60 -4 -5 -6 -7 -39 -40 -41 -46 -47 -52 0
-11 -45 -51 -56 -60 -65 -4 -5 -6 -7 -9 -39 -40 -41 -43 -46 -47 -49 -52 -54 -58 0
-65 -60 -56 -51 -45 -11 -58 -54 -49 -43 -9 -52 -47 -41 -7 -46 -40 -6 -39 -5 -4 0
-4 -5 -6 -7 -10 -11 -39 -40 -41 -44 -45 -46 -47 -50 -51 -52 -55 -56 -59 -60 -66 0
-11 -10 -7 -6 -5 -4 -66 -60 -56 -51 -45 -59 -55 -50 -44 -52 -47 -41 -46 -40 -39 0
-4 -45 -44 -41 -40 -39 -11 -10 -7 -6 -5 -66 -60 -56 -51 -59 -55 -50 -52 -47 -46 0
-39 -40 -41 -44 -45 -4 -46 -47 -50 -51 -5 -52 -55 -56 -6 -59 -60 -7 -66 -10 -11 0
-39 -5 -51 -50 -47 -46 -4 -45 -44 -41 -40 -11 -10 -7 -6 -66 -60 -56 -59 -55 -52 0
-46 -47 -50 -51 -5 -39 -52 -55 -56 -6 -40 -59 -60 -7 -41 -66 -10 -44 -11 -45 -4 0
-46 -40 -6 -56 -55 -52 -39 -5 -51 -50 -47 -4 -45 -44 -41 -11 -10 -7 -66 -60 -59 0
-52 -55 -56 -6 -40 -46 -59 -60 -7 -41 -47 -66 -10 -44 -50 -11 -45 -51 -4 -5 -39 0
-52 -47 -41 -7 -60 -59 -46 -40 -6 -56 -55 -39 -5 -51 -50 -4 -45 -44 -11 -10 -66 0
-59 -60 -7 -41 -47 -52 -66 -10 -44 -50 -55 -11 -45 -51 -56 -4 -5 -6 -39 -40 -46 0
-59 -55 -50 -44 -10 -66 -52 -47 -41 -7 -60 -46 -40 -6 -56 -39 -5 -51 -4 -45 -11 0
-66 -10 -44 -50 -55 -59 -11 -45 -51 -56 -60 -4 -5 -6 -7 -39 -40 -41 -46 -47 -52 0
-11 -45 -51 -56 -60 -66 -4 -5 -6 -7 -10 -39 -40 -41 -44 -46 -47 -50 -52 -55 -59 0
-66 -60 -56 -51 -45 -11 -59 -55 -50 -44 -10 -52 -47 -41 -7 -46 -40 -6 -39 -5 -4 0
-4 -5 -6 -8 -9 -10 -39 -40 -42 -43 -44 -46 -48 -49 -50 -53 -54 -55 -61 -62 -64 0
-10 -9 -8 -6 -5 -4 -64 -62 -55 -50 -44 -61 -54 -49 -43 -53 -48 -42 -46 -40 -39 0
-4 -44 -43 -42 -40 -39 -10 -9 -8 -6 -5 -64 -62 -55 -50 -61 -54 -49 -53 -48 -46 0
-39 -40 -42 -43 -44 -4 -46 -48 -49 -50 -5 -53 -54 -55 -6 -61 -62 -8 -64 -9 -10 0
-39 -5 -50 -49 -48 -46 -4 -44 -43 -42 -40 -10 -9 -8 -6 -64 -62 -55 -61 -54 -53 0
-46 -48 -49 -50 -5 -39 -53 -54 -55 -6 -40 -61 -62 -8 -42 -64 -9 -43 -10 -44 -4 0
-46 -40 -6 -55 -54 -53 -39 -5 -50 -49 -48 -4 -44 -43 -42 -10 -9 -8 -64 -62 -61 0
-53 -54 -55 -6 -40 -46 -61 -62 -8 -42 -48 -64 -9 -43 -49 -10 -44 -50 -4 -5 -39 0
-53 -48 -42 -8 -62 -61 -46 -40 -6 -55 -54 -39 -5 -50 -49 -4 -44 -43 -10 -9 -64 0
-61 -62 -8 -42 -48 -53 -64 -9 -43 -49 -54 -10 -44 -50 -55 -4 -5 -6 -39 -40 -46 0
-61 -54 -49 -43 -9 -64 -53 -48 -42 -8 -62 -46 -40 -6 -55 -39 -5 -50 -4 -44 -10 0
-64 -9 -43 -49 -54 -61 -10 -44 -50 -55 -62 -4 -5 -6 -8 -39 -40 -42 -46 -48 -53 0
-10 -44 -50 -55 -62 -64 -4 -5 -6 -8 -9 -39 -40 -42 -43 -46 -48 -49 -53 -54 -61 0
-64 -62 -55 -50 -44 -10 -61 -54 -49 -43 -9 -53 -48 -42 -8 -46 -40 -6 -39 -5 -4 0
-4 -5 -6 -8 -9 -11 -39 -40 -42 -43 -45 -46 -48 -49 -51 -53 -54 -56 -61 -63 -65 0
-11 -9 -8 -6 -5 -4 -65 -63 -56 -51 -45 -61 -54 -49 -43 -53 -48 -42 -46 -40 -39 0
-4 -45 -43 -42 -40 -39 -11 -9 -8 -6 -5 -65 -63 -56 -51 -61 -54 -49 -53 -48 -46 0
-39 -40 -42 -43 -45 -4 -46 -48 -49 -51 -5 -53 -54 -56 -6 -61 -63 -8 -65 -9 -11 0
-39 -5 -51 -49 -48 -46 -4 -45 -43 -42 -40 -11 -9 -8 -6 -65 -63 -56 -61 -54 -53 0
-46 -48 -49 -51 -5 -39 -53 -54 -56 -6 -40 -61 -63 -8 -42 -65 -9 -43 -11 -45 -4 0
-46 -40 -6 -56 -54 -53 -39 -5 -51 -49 -48 -4 -45 -43 -42 -11 -9 -8 -65 -63 -61 0
-53 -54 -56 -6 -40 -46 -61 -63 -8 -42 -48 -65 -9 -43 -49 -11 -45 -51 -4 -5 -39 0
-53 -48 -42 -8 -63 -61 -46 -40 -6 -56 -54 -39 -5 -51 -49 -4 -45 -43 -11 -9 -65 0
-61 -63 -8 -42 -48 -53 -65 -9 -43 -49 -54 -11 -45 -51 -56 -4 -5 -6 -39 -40 -46 0
-61 -54 -49 -43 -9 -65 -53 -48 -42 -8 -63 -46 -40 -6 -56 -39 -5 -51 -4 -45 -11 0
-65 -9 -43 -49 -54 -61 -11 -45 -51 -56 -63 -4 -5 -6 -8 -39 -40 -42 -46 -48 -53 0
-11 -45 -51 -56 -63 -65 -4 -5 -6 -8 -9 -39 -40 -42 -43 -46 -48 -49 -53 -54 -61 0
-65 -63 -56 -51 -45 -11 -61 -54 -49 -43 -9 -53 -48 -42 -8 -46 -40 -6 -39 -5 -4 0
-4 -5 -6 -8 -10 -11 -39 -40 -42 -44 -45 -46 -48 -50 -51 -53 -55 -56 -62 -63 -66 0
-11 -10 -8 -6 -5 -4 -66 -63 -56 -51 -45 -62 -55 -50 -44 -53 -48 -42 -46 -40 -39 0
-4 -45 -44 -42 -40 -39 -11 -10 -8 -6 -5 -66 -63 -56 -51 -62 -55 -50 -53 -48 -46 0
-39 -40 -42 -44 -45 -4 -46 -48 -50 -51 -5 -53 -55 -56 -6 -62 -63 -8 -66 -10 -11 0
-39 -5 -51 -50 -48 -46 -4 -45 -44 -42 -40 -11 -10 -8 -6 -66 -63 -56 -62 -55 -53 0
-46 -48 -50 -51 -5 -39 -53 -55 -56 -6 -40 -62 -63 -8 -42 -66 -10 -44 -11 -45 -4 0
-46 -40 -6 -56 -55 -53 -39 -5 -51 -50 -48 -4 -45 -44 -42 -11 -10 -8 -66 -63 -62 0
-53 -55 -56 -6 -40 -46 -62 -63 -8 -42 -48 -66 -10 -44 -50 -11 -45 -51 -4 -5 -39 0
-53 -48 -42 -8 -63 -62 -46 -40 -6 -56 -55 -39 -5 -51 -50 -4 -45 -44 -11 -10 -66 0
-62 -63 -8 -42 -48 -53 -66 -10 -44 -50 -55 -11 -45 -51 -56 -4 -5 -6 -39 -40 -46 0
-62 -55 -50 -44 -10 -66 -53 -48 -42 -8 -63 -46 -40 -6 -56 -39 -5 -51 -4 -45 -11 0
-66 -10 -44 -50 -55 -62 -11 -45 -51 -56 -63 -4 -5 -6 -8 -39 -40 -42 -46 -48 -53 0
-11 -45 -51 -56 -63 -66 -4 -5 -6 -8 -10 -39 -40 -42 -44 -46 -48 -50 -53 -55 -62 0
-66 -63 -56 -51 -45 -11 -62 -55 -50 -44 -10 -53 -48 -42 -8 -46 -40 -6 -39 -5 -4 0
-4 -5 -6 -9 -10 -11 -39 -40 -43 -44 -45 -46 -49 -50 -51 -54 -55 -56 -64 -65 -66 0
-11 -10 -9 -6 -5 -4 -66 -65 -56 -51 -45 -64 -55 -50 -44 -54 -49 -43 -46 -40 -39 0
-4 -45 -44 -43 -40 -39 -11 -10 -9 -6 -5 -66 -65 -56 -51 -64 -55 -50 -54 -49 -46 0
-39 -40 -43 -44 -45 -4 -46 -49 -50 -51 -5 -54 -55 -56 -6 -64 -65 -9 -66 -10 -11 0
-39 -5 -51 -50 -49 -46 -4 -45 -44 -43 -40 -11 -10 -9 -6 -66 -65 -56 -64 -55 -54 0
-46 -49 -50 -51 -5 -39 -54 -55 -56 -6 -40 -64 -65 -9 -43 -66 -10 -44 -11 -45 -4 0
-46 -40 -6 -56 -55 -54 -39 -5 -51 -50 -49 -4 -45 -44 -43 -11 -10 -9 -66 -65 -64 0
-54 -55 -56 -6 -40 -46 -64 -65 -9 -43 -49 -66 -10 -44 -50 -11 -45 -51 -4 -5 -39 0
-54 -49 -43 -9 -65 -64 -46 -40 -6 -56 -55 -39 -5 -51 -50 -4 -45 -44 -11 -10 -66 0
-64 -65 -9 -43 -49 -54 -66 -10 -44 -50 -55 -11 -45 -51 -56 -4 -5 -6 -39 -40 -46 0
-64 -55 -50 -44 -10 -66 -54 -49 -43 -9 -65 -46 -40 -6 -56 -39 -5 -51 -4 -45 -11 0
-66 -10 -44 -50 -55 -64 -11 -45 -51 -56 -65 -4 -5 -6 -9 -39 -40 -43 -46 -49 -54 0
-11 -45 -51 -56 -65 -66 -4 -5 -6 -9 -10 -39 -40 -43 -44 -46 -49 -50 -54 -55 -64 0
-66 -65 -56 -51 -45 -11 -64 -55 -50 -44 -10 -54 -49 -43 -9 -46 -40 -6 -39 -5 -4 0
-4 -5 -7 -8 -9 -10 -39 -41 -42 -43 -44 -47 -48 -49 -50 -57 -58 -59 -61 -62 -64 0
-10 -9 -8 -7 -5 -4 -64 -62 -59 -50 -44 -61 -58 -49 -43 -57 -48 -42 -47 -41 -39 0
-4 -44 -43 -42 -41 -39 -10 -9 -8 -7 -5 -64 -62 -59 -50 -61 -58 -49 -57 -48 -47 0
-39 -41 -42 -43 -44 -4 -47 -48 -49 -50 -5 -57 -58 -59 -7 -61 -62 -8 -64 -9 -10 0
-39 -5 -50 -49 -48 -47 -4 -44 -43 -42 -41 -10 -9 -8 -7 -64 -62 -59 -61 -58 -57 0
-47 -48 -49 -50 -5 -39 -57 -58 -59 -7 -41 -61 -62 -8 -42 -64 -9 -43 -10 -44 -4 0
-47 -41 -7 -59 -58 -57 -39 -5 -50 -49 -48 -4 -44 -43 -42 -10 -9 -8 -64 -62 -61 0
-57 -58 -59 -7 -41 -47 -61 -62 -8 -42 -48 -64 -9 -43 -49 -10 -44 -50 -4 -5 -39 0
-57 -48 -42 -8 -62 -61 -47 -41 -7 -59 -58 -39 -5 -50 -49 -4 -44 -43 -10 -9 -64 0
-61 -62 -8 -42 -48 -57 -64 -9 -43 -49 -58 -10 -44 -50 -59 -4 -5 -7 -39 -41 -47 0
-61 -58 -49 -43 -9 -64 -57 -48 -42 -8 -62 -47 -41 -7 -59 -39 -5 -50 -4 -44 -10 0
-64 -9 -43 -49 -58 -61 -10 -44 -50 -59 -62 -4 -5 -7 -8 -39 -41 -42 -47 -48 -57 0
-10 -44 -50 -59 -62 -64 -4 -5 -7 -8 -9 -39 -41 -42 -43 -47 -48 -49 -57 -58 -61 0
-64 -62 -59 -50 -44 -10 -61 -58 -49 -43 -9 -57 -48 -42 -8 -47 -41 -7 -39 -5 -4 0
-4 -5 -7 -8 -9 -11 -39 -41 -42 -43 -45 -47 -48 -49 -51 -57 -58 -60 -61 -63 -65 0
-11 -9 -8 -7 -5 -4 -65 -63 -60 -51 -45 -61 -58 -49 -43 -57 -48 -42 -47 -41 -39 0
-4 -45 -43 -42 -41 -39 -11 -9 -8 -7 -5 -65 -63 -60 -51 -61 -58 -49 -57 -48 -47 0
-39 -41 -42 -43 -45 -4 -47 -48 -49 -51 -5 -57 -58 -60 -7 -61 -63 -8 -65 -9 -11 0
-39 -5 -51 -49 -48 -47 -4 -45 -43 -42 -41 -11 -9 -8 -7 -65 -63 -60 -61 -58 -57 0
-47 -48 -49 -51 -5 -39 -57 -58 -60 -7 -41 -61 -63 -8 -42 -65 -9 -43 -11 -45 -4 0
-47 -41 -7 -60 -58 -57 -39 -5 -51 -49 -48 -4 -45 -43 -42 -11 -9 -8 -65 -63 -61 0
-57 -58 -60 -7 -41 -47 -61 -63 -8 -42 -48 -65 -9 -43 -49 -11 -45 -51 -4 -5 -39 0
-57 -48 -42 -8 -63 -61 -47 -41 -7 -60 -58 -39 -5 -51 -49 -4 -45 -43 -11 -9 -65 0
-61 -63 -8 -42 -48 -57 -65 -9 -43 -49 -58 -11 -45 -51 -60 -4 -5 -7 -39 -41 -47 0
-61 -58 -49 -43 -9 -65 -57 -48 -42 -8 -63 -47 -41 -7 -60 -39 -5 -51 -4 -45 -11 0
-65 -9 -43 -49 -58 -61 -11 -45 -51 -60 -63 -4 -5 -7 -8 -39 -41 -42 -47 -48 -57 0
-11 -45 -51 -60 -63 -65 -4 -5 -7 -8 -9 -39 -41 -42 -43 -47 -48 -49 -57 -58 -61 0
-65 -63 -60 -51 -45 -11 -61 -58 -49 -43 -9 -57 -48 -42 -8 -47 -41 -7 -39 -5 -4 0
-4 -5 -7 -8 -10 -11 -39 -41 -42 -44 -45 -47 -48 -50 -51 -57 -59 -60 -62 -63 -66 0
-11 -10 -8 -7 -5 -4 -66 -63 -60 -51 -45 -62 -59 -50 -44 -57 -48 -42 -47 -41 -39 0
-4 -45 -44 -42 -41 -39 -11 -10 -8 -7 -5 -66 -63 -60 -51 -62 -59 -50 -57 -48 -47 0
-39 -41 -42 -44 -45 -4 -47 -48 -50 -51 -5 -57 -59 -60 -7 -62 -63 -8 -66 -10 -11 0
-39 -5 -51 -50 -48 -47 -4 -45 -44 -42 -41 -11 -10 -8 -7 -66 -63 -60 -62 -59 -57 0
-47 -48 -50 -51 -5 -39 -57 -59 -60 -7 -41 -62 -63 -8 -42 -66 -10 -44 -11 -45 -4 0
-47 -41 -7 -60 -59 -57 -39 -5 -51 -50 -48 -4 -45 -44 -42 -11 -10 -8 -66 -63 -62 0
-57 -59 -60 -7 -41 -47 -62 -63 -8 -42 -48 -66 -10 -44 -50 -11 -45 -51 -4 -5 -39 0
-57 -48 -42 -8 -63 -62 -47 -41 -7 -60 -59 -39 -5 -51 -50 -4 -45 -44 -11 -10 -66 0
-62 -63 -8 -42 -48 -57 -66 -10 -44 -50 -59 -11 -45 -51 -60 -4 -5 -7 -39 -41 -47 0
-62 -59 -50 -44 -10 -66 -57 -48 -42 -8 -63 -47 -41 -7 -60 -39 -5 -51 -4 -45 -11 0
-66 -10 -44 -50 -59 -62 -11 -45 -51 -60 -63 -4 -5 -7 -8 -39 -41 -42 -47 -48 -57 0
-11 -45 -51 -60 -63 -66 -4 -5 -7 -8 -10 -39 -41 -42 -44 -47 -48 -50 -57 -59 -62 0
-66 -63 -60 -51 -45 -11 -62 -59 -50 -44 -10 -57 -48 -42 -8 -47 -41 -7 -39 -5 -4 0
-4 -5 -7 -9 -10 -11 -39 -41 -43 -44 -45 -47 -49 -50 -51 -58 -59 -60 -64 -65 -66 0
-11 -10 -9 -7 -5 -4 -66 -65 -60 -51 -45 -64 -59 -50 -44 -58 -49 -43 -47 -41 -39 0
-4 -45 -44 -43 -41 -39 -11 -10 -9 -7 -5 -66 -65 -60 -51 -64 -59 -50 -58 -49 -47 0
-39 -41 -43 -44 -45 -4 -47 -49 -50 -51 -5 -58 -59 -60 -7 -64 -65 -9 -66 -10 -11 0
-39 -5 -51 -50 -49 -47 -4 -45 -44 -43 -41 -11 -10 -9 -7 -66 -65 -60 -64 -59 -58 0
-47 -49 -50 -51 -5 -39 -58 -59 -60 -7 -41 -64 -65 -9 -43 -66 -10 -44 -11 -45 -4 0
-47 -41 -7 -60 -59 -58 -39 -5 -51 -50 -49 -4 -45 -44 -43 -11 -10 -9 -66 -65 -64 0
-58 -59 -60 -7 -41 -47 -64 -65 -9 -43 -49 -66 -10 -44 -50 -11 -45 -51 -4 -5 -39 0
-58 -49 -43 -9 -65 -64 -47 -41 -7 -60 -59 -39 -5 -51 -50 -4 -45 -44 -11 -10 -66 0
-64 -65 -9 -43 -49 -58 -66 -10 -44 -50 -59 -11 -45 -51 -60 -4 -5 -7 -39 -41 -47 0
-64 -59 -50 -44 -10 -66 -58 -49 -43 -9 -65 -47 -41 -7 -60 -39 -5 -51 -4 -45 -11 0
-66 -10 -44 -50 -59 -64 -11 -45 -51 -60 -65 -4 -5 -7 -9 -39 -41 -43 -47 -49 -58 0
-11 -45 -51 -60 -65 -66 -4 -5 -7 -9 -10 -39 -41 -43 -44 -47 -49 -50 -58 -59 -64 0
-66 -65 -60 -51 -45 -11 -64 -59 -50 -44 -10 -58 -49 -43 -9 -47 -41 -7 -39 -5 -4 0
-4 -5 -8 -9 -10 -11 -39 -42 -43 -44 -45 -48 -49 -50 -51 -61 -62 -63 -64 -65 -66 0
-11 -10 -9 -8 -5 -4 -66 -65 -63 -51 -45 -64 -62 -50 -44 -61 -49 -43 -48 -42 -39 0
-4 -45 -44 -43 -42 -39 -11 -10 -9 -8 -5 -66 -65 -63 -51 -64 -62 -50 -61 -49 -48 0
-39 -42 -43 -44 -45 -4 -48 -49 -50 -51 -5 -61 -62 -63 -8 -64 -65 -9 -66 -10 -11 0
-39 -5 -51 -50 -49 -48 -4 -45 -44 -43 -42 -11 -10 -9 -8 -66 -65 -63 -64 -62 -61 0
-48 -49 -50 -51 -5 -39 -61 -62 -63 -8 -42 -64 -65 -9 -43 -66 -10 -44 -11 -45 -4 0
-48 -42 -8 -63 -62 -61 -39 -5 -51 -50 -49 -4 -45 -44 -43 -11 -10 -9 -66 -65 -64 0
-61 -62 -63 -8 -42 -48 -64 -65 -9 -43 -49 -66 -10 -44 -50 -11 -45 -51 -4 -5 -39 0
-61 -49 -43 -9 -65 -64 -48 -42 -8 -63 -62 -39 -5 -51 -50 -4 -45 -44 -11 -10 -66 0
-64 -65 -9 -43 -49 -61 -66 -10 -44 -50 -62 -11 -45 -51 -63 -4 -5 -8 -39 -42 -48 0
-64 -62 -50 -44 -10 -66 -61 -49 -43 -9 -65 -48 -42 -8 -63 -39 -5 -51 -4 -45 -11 0
-66 -10 -44 -50 -62 -64 -11 -45 -51 -63 -65 -4 -5 -8 -9 -39 -42 -43 -48 -49 -61 0
-11 -45 -51 -63 -65 -66 -4 -5 -8 -9 -10 -39 -42 -43 -44 -48 -49 -50 -61 -62 -64 0
-66 -65 -63 -51 -45 -11 -64 -62 -50 -44 -10 -61 -49 -43 -9 -48 -42 -8 -39 -5 -4 0
-4 -6 -7 -8 -9 -10 -40 -41 -42 -43 -44 -52 -53 -54 -55 -57 -58 -59 -61 -62 -64 0
-10 -9 -8 -7 -6 -4 -64 -62 -59 -55 -44 -61 -58 -54 -43 -57 -53 -42 -52 -41 -40 0
-4 -44 -43 -42 -41 -40 -10 -9 -8 -7 -6 -64 -62 -59 -55 -61 -58 -54 -57 -53 -52 0
-40 -41 -42 -43 -44 -4 -52 -53 -54 -55 -6 -57 -58 -59 -7 -61 -62 -8 -64 -9 -10 0
-40 -6 -55 -54 -53 -52 -4 -44 -43 -42 -41 -10 -9 -8 -7 -64 -62 -59 -61 -58 -57 0
-52 -53 -54 -55 -6 -40 -57 -58 -59 -7 -41 -61 -62 -8 -42 -64 -9 -43 -10 -44 -4 0
-52 -41 -7 -59 -58 -57 -40 -6 -55 -54 -53 -4 -44 -43 -42 -10 -9 -8 -64 -62 -61 0
-57 -58 -59 -7 -41 -52 -61 -62 -8 -42 -53 -64 -9 -43 -54 -10 -44 -55 -4 -6 -40 0
-57 -53 -42 -8 -62 -61 -52 -41 -7 -59 -58 -40 -6 -55 -54 -4 -44 -43 -10 -9 -64 0
-61 -62 -8 -42 -53 -57 -64 -9 -43 -54 -58 -10 -44 -55 -59 -4 -6 -7 -40 -41 -52 0
-61 -58 -54 -43 -9 -64 -57 -53 -42 -8 -62 -52 -41 -7 -59 -40 -6 -55 -4 -44 -10 0
-64 -9 -43 -54 -58 -61 -10 -44 -55 -59 -62 -4 -6 -7 -8 -40 -41 -42 -52 -53 -57 0
-10 -44 -55 -59 -62 -64 -4 -6 -7 -8 -9 -40 -41 -42 -43 -52 -53 -54 -57 -58 -61 0
-64 -62 -59 -55 -44 -10 -61 -58 -54 -43 -9 -57 -53 -42 -8 -52 -41 -7 -40 -6 -4 0
-4 -6 -7 -8 -9 -11 -40 -41 -42 -43 -45 -52 -53 -54 -56 -57 -58 -60 -61 -63 -65 0
-11 -9 -8 -7 -6 -4 -65 -63 -60 -56 -45 -61 -58 -54 -43 -57 -53 -42 -52 -41 -40 0
-4 -45 -43 -42 -41 -40 -11 -9 -8 -7 -6 -65 -63 -60 -56 -61 -58 -54 -57 -53 -52 0
-40 -41 -42 -43 -45 -4 -52 -53 -54 -56 -6 -57 -58 -60 -7 -61 -63 -8 -65 -9 -11 0
-40 -6 -56 -54 -53 -52 -4 -45 -43 -42 -41 -11 -9 -8 -7 -65 -63 -60 -61 -58 -57 0
-52 -53 -54 -56 -6 -40 -57 -58 -60 -7 -41 -61 -63 -8 -42 -65 -9 -43 -11 -45 -4 0
-52 -41 -7 -60 -58 -57 -40 -6 -56 -54 -53 -4 -45 -43 -42 -11 -9 -8 -65 -63 -61 0
-57 -58 -60 -7 -41 -52 -61 -63 -8 -42 -53 -65 -9 -43 -54 -11 -45 -56 -4 -6 -40 0
-57 -53 -42 -8 -63 -61 -52 -41 -7 -60 -58 -40 -6 -56 -54 -4 -45 -43 -11 -9 -65 0
-61 -63 -8 -42 -53 -57 -65 -9 -43 -54 -58 -11 -45 -56 -60 -4 -6 -7 -40 -41 -52 0
-61 -58 -54 -43 -9 -65 -57 -53 -42 -8 -63 -52 -41 -7 -60 -40 -6 -56 -4 -45 -11 0
-65 -9 -43 -54 -58 -61 -11 -45 -56 -60 -63 -4 -6 -7 -8 -40 -41 -42 -52 -53 -57 0
-11 -45 -56 -60 -63 -65 -4 -6 -7 -8 -9 -40 -41 -42 -43 -52 -53 -54 -57 -58 -61 0
-65 -63 -60 -56 -45 -11 -61 -58 -54 -43 -9 -57 -53 -42 -8 -52 -41 -7 -40 -6 -4 0
-4 -6 -7 -8 -10 -11 -40 -41 -42 -44 -45 -52 -53 -55 -56 -57 -59 -60 -62 -63 -66 0
-11 -10 -8 -7 -6 -4 -66 -63 -60 -56 -45 -62 -59 -55 -44 -57 -53 -42 -52 -41 -40 0
-4 -45 -44 -42 -41 -40 -11 -10 -8 -7 -6 -66 -63 -60 -56 -62 -59 -55 -57 -53 -52 0
-40 -41 -42 -44 -45 -4 -52 -53 -55 -56 -6 -57 -59 -60 -7 -62 -63 -8 -66 -10 -11 0
-40 -6 -56 -55 -53 -52 -4 -45 -44 -42 -41 -11 -10 -8 -7 -66 -63 -60 -62 -59 -57 0
-52 -53 -55 -56 -6 -40 -57 -59 -60 -7 -41 -62 -63 -8 -42 -66 -10 -44 -11 -45 -4 0
-52 -41 -7 -60 -59 -57 -40 -6 -56 -55 -53 -4 -45 -44 -42 -11 -10 -8 -66 -63 -62 0
-57 -59 -60 -7 -41 -52 -62 -63 -8 -42 -53 -66 -10 -44 -55 -11 -45 -56 -4 -6 -40 0
-57 -53 -42 -8 -63 -62 -52 -41 -7 -60 -59 -40 -6 -56 -55 -4 -45 -44 -11 -10 -66 0
-62 -63 -8 -42 -53 -57 -66 -10 -44 -55 -59 -11 -45 -56 -60 -4 -6 -7 -40 -41 -52 0
-62 -59 -55 -44 -10 -66 -57 -53 -42 -8 -63 -52 -41 -7 -60 -40 -6 -56 -4 -45 -11 0
-66 -10 -44 -55 -59 -62 -11 -45 -56 -60 -63 -4 -6 -7 -8 -40 -41 -42 -52 -53 -57 0
-11 -45 -56 -60 -63 -66 -4 -6 -7 -8 -10 -40 -41 -42 -44 -52 -53 -55 -57 -59 -62 0
-66 -63 -60 -56 -45 -11 -62 -59 -55 -44 -10 -57 -53 -42 -8 -52 -41 -7 -40 -6 -4 0
-4 -6 -7 -9 -10 -11 -40 -41 -43 -44 -45 -52 -54 -55 -56 -58 -59 -60 -64 -65 -66 0
-11 -10 -9 -7 -6 -4 -66 -65 -60 -56 -45 -64 -59 -55 -44 -58 -54 -43 -52 -41 -40 0
-4 -45 -44 -43 -41 -40 -11 -10 -9 -7 -6 -66 -65 -60 -56 -64 -59 -55 -58 -54 -52 0
-40 -41 -43 -44 -45 -4 -52 -54 -55 -56 -6 -58 -59 -60 -7 -64 -65 -9 -66 -10 -11 0
-40 -6 -56 -55 -54 -52 -4 -45 -44 -43 -41 -11 -10 -9 -7 -66 -65 -60 -64 -59 -58 0
-52 -54 -55 -56 -6 -40 -58 -59 -60 -7 -41 -64 -65 -9 -43 -66 -10 -44 -11 -45 -4 0
-52 -41 -7 -60 -59 -58 -40 -6 -56 -55 -54 -4 -45 -44 -43 -11 -10 -9 -66 -65 -64 0
-58 -59 -60 -7 -41 -52 -64 -65 -9 -43 -54 -66 -10 -44 -55 -11 -45 -56 -4 -6 -40 0
-58 -54 -43 -9 -65 -64 -52 -41 -7 -60 -59 -40 -6 -56 -55 -4 -45 -44 -11 -10 -66 0
-64 -65 -9 -43 -54 -58 -66 -10 -44 -55 -59 -11 -45 -56 -60 -4 -6 -7 -40 -41 -52 0
-64 -59 -55 -44 -10 -66 -58 -54 -43 -9 -65 -52 -41 -7 -60 -40 -6 -56 -4 -45 -11 0
-66 -10 -44 -55 -59 -64 -11 -45 -56 -60 -65 -4 -6 -7 -9 -40 -41 -43 -52 -54 -58 0
-11 -45 -56 -60 -65 -66 -4 -6 -7 -9 -10 -40 -41 -43 -44 -52 -54 -55 -58 -59 -64 0
-66 -65 -60 -56 -45 -11 -64 -59 -55 -44 -10 -58 -54 -43 -9 -52 -41 -7 -40 -6 -4 0
-4 -6 -8 -9 -10 -11 -40 -42 -43 -44 -45 -53 -54 -55 -56 -61 -62 -63 -64 -65 -66 0
-11 -10 -9 -8 -6 -4 -66 -65 -63 -56 -45 -64 -62 -55 -44 -61 -54 -43 -53 -42 -40 0
-4 -45 -44 -43 -42 -40 -11 -10 -9 -8 -6 -66 -65 -63 -56 -64 -62 -55 -61 -54 -53 0
-40 -42 -43 -44 -45 -4 -53 -54 -55 -56 -6 -61 -62 -63 -8 -64 -65 -9 -66 -10 -11 0
-40 -6 -56 -55 -54 -53 -4 -45 -44 -43 -42 -11 -10 -9 -8 -66 -65 -63 -64 -62 -61 0
-53 -54 -55 -56 -6 -40 -61 -62 -63 -8 -42 -64 -65 -9 -43 -66 -10 -44 -11 -45 -4 0
-53 -42 -8 -63 -62 -61 -40 -6 -56 -55 -54 -4 -45 -44 -43 -11 -10 -9 -66 -65 -64 0
-61 -62 -63 -8 -42 -53 -64 -65 -9 -43 -54 -66 -10 -44 -55 -11 -45 -56 -4 -6 -40 0
-61 -54 -43 -9 -65 -64 -53 -42 -8 -63 -62 -40 -6 -56 -55 -4 -45 -44 -11 -10 -66 0
-64 -65 -9 -43 -54 -61 -66 -10 -44 -55 -62 -11 -45 -56 -63 -4 -6 -8 -40 -42 -53 0
-64 -62 -55 -44 -10 -66 -61 -54 -43 -9 -65 -53 -42 -8 -63 -40 -6 -56 -4 -45 -11 0
-66 -10 -44 -55 -62 -64 -11 -45 -56 -63 -65 -4 -6 -8 -9 -40 -42 -43 -53 -54 -61 0
-11 -45 -56 -63 -65 -66 -4 -6 -8 -9 -10 -40 -42 -43 -44 -53 -54 -55 -61 -62 -64 0
-66 -65 -63 -56 -45 -11 -64 -62 -55 -44 -10 -61 -54 -43 -9 -53 -42 -8 -40 -6 -4 0
-4 -7 -8 -9 -10 -11 -41 -42 -43 -44 -45 -57 -58 -59 -60 -61 -62 -63 -64 -65 -66 0
-11 -10 -9 -8 -7 -4 -66 -65 -63 -60 -45 -64 -62 -59 -44 -61 -58 -43 -57 -42 -41 0
-4 -45 -44 -43 -42 -41 -11 -10 -9 -8 -7 -66 -65 -63 -60 -64 -62 -59 -61 -58 -57 0
-41 -42 -43 -44 -45 -4 -57 -58 -59 -60 -7 -61 -62 -63 -8 -64 -65 -9 -66 -10 -11 0
-41 -7 -60 -59 -58 -57 -4 -45 -44 -43 -42 -11 -10 -9 -8 -66 -65 -63 -64 -62 -61 0
-57 -58 -59 -60 -7 -41 -61 -62 -63 -8 -42 -64 -65 -9 -43 -66 -10 -44 -11 -45 -4 0
-57 -42 -8 -63 -62 -61 -41 -7 -60 -59 -58 -4 -45 -44 -43 -11 -10 -9 -66 -65 -64 0
-61 -62 -63 -8 -42 -57 -64 -65 -9 -43 -58 -66 -10 -44 -59 -11 -45 -60 -4 -7 -41 0
-61 -58 -43 -9 -65 -64 -57 -42 -8 -63 -62 -41 -7 -60 -59 -4 -45 -44 -11 -10 -66 0
-64 -65 -9 -43 -58 -61 -66 -10 -44 -59 -62 -11 -45 -60 -63 -4 -7 -8 -41 -42 -57 0
-64 -62 -59 -44 -10 -66 -61 -58 -43 -9 -65 -57 -42 -8 -63 -41 -7 -60 -4 -45 -11 0
-66 -10 -44 -59 -62 -64 -11 -45 -60 -63 -65 -4 -7 -8 -9 -41 -42 -43 -57 -58 -61 0
-11 -45 -60 -63 -65 -66 -4 -7 -8 -9 -10 -41 -42 -43 -44 -57 -58 -59 -61 -62 -64 0
-66 -65 -63 -60 -45 -11 -64 -62 -59 -44 -10 -61 -58 -43 -9 -57 -42 -8 -41 -7 -4 0
-5 -6 -7 -8 -9 -10 -46 -47 -48 -49 -50 -52 -53 -54 -55 -57 -58 -59 -61 -62 -64 0
-10 -9 -8 -7 -6 -5 -64 -62 -59 -55 -50 -61 -58 -54 -49 -57 -53 -48 -52 -47 -46 0
-5 -50 -49 -48 -47 -46 -10 -9 -8 -7 -6 -64 -62 -59 -55 -61 -58 -54 -57 -53 -52 0
-46 -47 -48 -49 -50 -5 -52 -53 -54 -55 -6 -57 -58 -59 -7 -61 -62 -8 -64 -9 -10 0
-46 -6 -55 -54 -53 -52 -5 -50 -49 -48 -47 -10 -9 -8 -7 -64 -62 -59 -61 -58 -57 0
-52 -53 -54 -55 -6 -46 -57 -58 -59 -7 -47 -61 -62 -8 -48 -64 -9 -49 -10 -50 -5 0
-52 -47 -7 -59 -58 -57 -46 -6 -55 -54 -53 -5 -50 -49 -48 -10 -9 -8 -64 -62 -61 0
-57 -58 -59 -7 -47 -52 -61 -62 -8 -48 -53 -64 -9 -49 -54 -10 -50 -55 -5 -6 -46 0
-57 -53 -48 -8 -62 -61 -52 -47 -7 -59 -58 -46 -6 -55 -54 -5 -50 -49 -10 -9 -64 0
-61 -62 -8 -48 -53 -57 -64 -9 -49 -54 -58 -10 -50 -55 -59 -5 -6 -7 -46 -47 -52 0
-61 -58 -54 -49 -9 -64 -57 -53 -48 -8 -62 -52 -47 -7 -59 -46 -6 -55 -5 -50 -10 0
-64 -9 -49 -54 -58 -61 -10 -50 -55 -59 -62 -5 -6 -7 -8 -46 -47 -48 -52 -53 -57 0
-10 -50 -55 -59 -62 -64 -5 -6 -7 -8 -9 -46 -47 -48 -49 -52 -53 -54 -57 -58 -61 0
-64 -62 -59 -55 -50 -10 -61 -58 -54 -49 -9 -57 -53 -48 -8 -52 -47 -7 -46 -6 -5 0
-5 -6 -7 -8 -9 -11 -46 -47 -48 -49 -51 -52 -53 -54 -56 -57 -58 -60 -61 -63 -65 0
-11 -9 -8 -7 -6 -5 -65 -63 -60 -56 -51 -61 -58 -54 -49 -57 -53 -48 -52 -47 -46 0
-5 -51 -49 -48 -47 -46 -11 -9 -8 -7 -6 -65 -63 -60 -56 -61 -58 -54 -57 -53 -52 0
-46 -47 -48 -49 -51 -5 -52 -53 -54 -56 -6 -57 -58 -60 -7 -61 -63 -8 -65 -9 -11 0
-46 -6 -56 -54 -53 -52 -5 -51 -49 -48 -47 -11 -9 -8 -7 -65 -63 -60 -61 -58 -57 0
-52 -53 -54 -56 -6 -46 -57 -58 -60 -7 -47 -61 -63 -8 -48 -65 -9 -49 -11 -51 -5 0
-52 -47 -7 -60 -58 -57 -46 -6 -56 -54 -53 -5 -51 -49 -48 -11 -9 -8 -65 -63 -61 0
-57 -58 -60 -7 -47 -52 -61 -63 -8 -48 -53 -65 -9 -49 -54 -11 -51 -56 -5 -6 -46 0
-57 -53 -48 -8 -63 -61 -52 -47 -7 -60 -58 -46 -6 -56 -54 -5 -51 -49 -11 -9 -65 0
-61 -63 -8 -48 -53 -57 -65 -9 -49 -54 -58 -11 -51 -56 -60 -5 -6 -7 -46 -47 -52 0
-61 -58 -54 -49 -9 -65 -57 -53 -48 -8 -63 -52 -47 -7 -60 -46 -6 -56 -5 -51 -11 0
-65 -9 -49 -54 -58 -61 -11 -51 -56 -60 -63 -5 -6 -7 -8 -46 -47 -48 -52 -53 -57 0
-11 -51 -56 -60 -63 -65 -5 -6 -7 -8 -9 -46 -47 -48 -49 -52 -53 -54 -57 -58 -61 0
-65 -63 -60 -56 -51 -11 -61 -58 -54 -49 -9 -57 -53 -48 -8 -52 -47 -7 -46 -6 -5 0
-5 -6 -7 -8 -10 -11 -46 -47 -48 -50 -51 -52 -53 -55 -56 -57 -59 -60 -62 -63 -66 0
-11 -10 -8 -7 -6 -5 -66 -63 -60 -56 -51 -62 -59 -55 -50 -57 -53 -48 -52 -47 -46 0
-5 -51 -50 -48 -47 -46 -11 -10 -8 -7 -6 -66 -63 -60 -56 -62 -59 -55 -57 -53 -52 0
-46 -47 -48 -50 -51 -5 -52 -53 -55 -56 -6 -57 -59 -60 -7 -62 -63 -8 -66 -10 -11 0
-46 -6 -56 -55 -53 -52 -5 -51 -50 -48 -47 -11 -10 -8 -7 -66 -63 -60 -62 -59 -57 0
-52 -53 -55 -56 -6 -46 -57 -59 -60 -7 -47 -62 -63 -8 -48 -66 -10 -50 -11 -51 -5 0
-52 -47 -7 -60 -59 -57 -46 -6 -56 -55 -53 -5 -51 -50 -48 -11 -10 -8 -66 -63 -62 0
-57 -59 -60 -7 -47 -52 -62 -63 -8 -48 -53 -66 -10 -50 -55 -11 -51 -56 -5 -6 -46 0
-57 -53 -48 -8 -63 -62 -52 -47 -7 -60 -59 -46 -6 -56 -55 -5 -51 -50 -11 -10 -66 0
-62 -63 -8 -48 -53 -57 -66 -10 -50 -55 -59 -11 -51 -56 -60 -5 -6 -7 -46 -47 -52 0
-62 -59 -55 -50 -10 -66 -57 -53 -48 -8 -63 -52 -47 -7 -60 -46 -6 -56 -5 -51 -11 0
-66 -10 -50 -55 -59 -62 -11 -51 -56 -60 -63 -5 -6 -7 -8 -46 -47 -48 -52 -53 -57 0
-11 -51 -56 -60 -63 -66 -5 -6 -7 -8 -10 -46 -47 -48 -50 -52 -53 -55 -57 -59 -62 0
-66 -63 -60 -56 -51 -11 -62 -59 -55 -50 -10 -57 -53 -48 -8 -52 -47 -7 -46 -6 -5 0
-5 -6 -7 -9 -10 -11 -46 -47 -49 -50 -51 -52 -54 -55 -56 -58 -59 -60 -64 -65 -66 0
-11 -10 -9 -7 -6 -5 -66 -65 -60 -56 -51 -64 -59 -55 -50 -58 -54 -49 -52 -47 -46 0
-5 -51 -50 -49 -47 -46 -11 -10 -9 -7 -6 -66 -65 -60 -56 -64 -59 -55 -58 -54 -52 0
-46 -47 -49 -50 -51 -5 -52 -54 -55 -56 -6 -58 -59 -60 -7 -64 -65 -9 -66 -10 -11 0
-46 -6 -56 -55 -54 -52 -5 -51 -50 -49 -47 -11 -10 -9 -7 -66 -65 -60 -64 -59 -58 0
-52 -54 -55 -56 -6 -46 -58 -59 -60 -7 -47 -64 -65 -9 -49 -66 -10 -50 -11 -51 -5 0
-52 -47 -7 -60 -59 -58 -46 -6 -56 -55 -54 -5 -51 -50 -49 -11 -10 -9 -66 -65 -64 0
-58 -59 -60 -7 -47 -52 -64 -65 -9 -49 -54 -66 -10 -50 -55 -11 -51 -56 -5 -6 -46 0
-58 -54 -49 -9 -65 -64 -52 -47 -7 -60 -59 -46 -6 -56 -55 -5 -51 -50 -11 -10 -66 0
-64 -65 -9 -49 -54 -58 -66 -10 -50 -55 -59 -11 -51 -56 -60 -5 -6 -7 -46 -47 -52 0
-64 -59 -55 -50 -10 -66 -58 -54 -49 -9 -65 -52 -47 -7 -60 -46 -6 -56 -5 -51 -11 0
-66 -10 -50 -55 -59 -64 -11 -51 -56 -60 -65 -5 -6 -7 -9 -46 -47 -49 -52 -54 -58 0
-11 -51 -56 -60 -65 -66 -5 -6 -7 -9 -10 -46 -47 -49 -50 -52 -54 -55 -58 -59 -64 0
-66 -65 -60 -56 -51 -11 -64 -59 -55 -50 -10 -58 -54 -49 -9 -52 -47 -7 -46 -6 -5 0
-5 -6 -8 -9 -10 -11 -46 -48 -49 -50 -51 -53 -54 -55 -56 -61 -62 -63 -64 -65 -66 0
-11 -10 -9 -8 -6 -5 -66 -65 -63 -56 -51 -64 -62 -55 -50 -61 -54 -49 -53 -48 -46 0
-5 -51 -50 -49 -48 -46 -11 -10 -9 -8 -6 -66 -65 -63 -56 -64 -62 -55 -61 -54 -53 0
-46 -48 -49 -50 -51 -5 -53 -54 -55 -56 -6 -61 -62 -63 -8 -64 -65 -9 -66 -10 -11 0
-46 -6 -56 -55 -54 -53 -5 -51 -50 -49 -48 -11 -10 -9 -8 -66 -65 -63 -64 -62 -61 0
-53 -54 -55 -56 -6 -46 -61 -62 -63 -8 -48 -64 -65 -9 -49 -66 -10 -50 -11 -51 -5 0
-53 -48 -8 -63 -62 -61 -46 -6 -56 -55 -54 -5 -51 -50 -49 -11 -10 -9 -66 -65 -64 0
-61 -62 -63 -8 -48 -53 -64 -65 -9 -49 -54 -66 -10 -50 -55 -11 -51 -56 -5 -6 -46 0
-61 -54 -49 -9 -65 -64 -53 -48 -8 -63 -62 -46 -6 -56 -55 -5 -51 -50 -11 -10 -66 0
-64 -65 -9 -49 -54 -61 -66 -10 -50 -55 -62 -11 -51 -56 -63 -5 -6 -8 -46 -48 -53 0
-64 -62 -55 -50 -10 -66 -61 -54 -49 -9 -65 -53 -48 -8 -63 -46 -6 -56 -5 -51 -11 0
-66 -10 -50 -55 -62 -64 -11 -51 -56 -63 -65 -5 -6 -8 -9 -46 -48 -49 -53 -54 -61 0
-11 -51 -56 -63 -65 -66 -5 -6 -8 -9 -10 -46 -48 -49 -50 -53 -54 -55 -61 -62 -64 0
-66 -65 -63 -56 -51 -11 -64 -62 -55 -50 -10 -61 -54 -49 -9 -53 -48 -8 -46 -6 -5 0
-5 -7 -8 -9 -10 -11 -47 -48 -49 -50 -51 -57 -58 -59 -60 -61 -62 -63 -64 -65 -66 0
-11 -10 -9 -8 -7 -5 -66 -65 -63 -60 -51 -64 -62 -59 -50 -61 -58 -49 -57 -48 -47 0
-5 -51 -50 -49 -48 -47 -11 -10 -9 -8 -7 -66 -65 -63 -60 -64 -62 -59 -61 -58 -57 0
-47 -48 -49 -50 -51 -5 -57 -58 -59 -60 -7 -61 -62 -63 -8 -64 -65 -9 -66 -10 -11 0
-47 -7 -60 -59 -58 -57 -5 -51 -50 -49 -48 -11 -10 -9 -8 -66 -65 -63 -64 -62 -61 0
-57 -58 -59 -60 -7 -47 -61 -62 -63 -8 -48 -64 -65 -9 -49 -66 -10 -50 -11 -51 -5 0
-57 -48 -8 -63 -62 -61 -47 -7 -60 -59 -58 -5 -51 -50 -49 -11 -10 -9 -66 -65 -64 0
-61 -62 -63 -8 -48 -57 -64 -65 -9 -49 -58 -66 -10 -50 -59 -11 -51 -60 -5 -7 -47 0
-61 -58 -49 -9 -65 -64 -57 -48 -8 -63 -62 -47 -7 -60 -59 -5 -51 -50 -11 -10 -66 0
-64 -65 -9 -49 -58 -61 -66 -10 -50 -59 -62 -11 -51 -60 -63 -5 -7 -8 -47 -48 -57 0
-64 -62 -59 -50 -10 -66 -61 -58 -49 -9 -65 -57 -48 -8 -63 -47 -7 -60 -5 -51 -11 0
-66 -10 -50 -59 -62 -64 -11 -51 -60 -63 -65 -5 -7 -8 -9 -47 -48 -49 -57 -58 -61 0
-11 -51 -60 -63 -65 -66 -5 -7 -8 -9 -10 -47 -48 -49 -50 -57 -58 -59 -61 -62 -64 0
-66 -65 -63 -60 -51 -11 -64 -62 -59 -50 -10 -61 -58 -49 -9 -57 -48 -8 -47 -7 -5 0
-6 -7 -8 -9 -10 -11 -52 -53 -54 -55 -56 -57 -58 -59 -60 -61 -62 -63 -64 -65 -66 0
-11 -10 -9 -8 -7 -6 -66 -65 -63 -60 -56 -64 -62 -59 -55 -61 -58 -54 -57 -53 -52 0
-6 -56 -55 -54 -53 -52 -11 -10 -9 -8 -7 -66 -65 -63 -60 -64 -62 -59 -61 -58 -57 0
-52 -53 -54 -55 -56 -6 -57 -58 -59 -60 -7 -61 -62 -63 -8 -64 -65 -9 -66 -10 -11 0
-52 -7 -60 -59 -58 -57 -6 -56 -55 -54 -53 -11 -10 -9 -8 -66 -65 -63 -64 -62 -61 0
-57 -58 -59 -60 -7 -52 -61 -62 -63 -8 -53 -64 -65 -9 -54 -66 -10 -55 -11 -56 -6 0
-57 -53 -8 -63 -62 -61 -52 -7 -60 -59 -58 -6 -56 -55 -54 -11 -10 -9 -66 -65 -64 0
-61 -62 -63 -8 -53 -57 -64 -65 -9 -54 -58 -66 -10 -55 -59 -11 -56 -60 -6 -7 -52 0
-61 -58 -54 -9 -65 -64 -57 -53 -8 -63 -62 -52 -7 -60 -59 -6 -56 -55 -11 -10 -66 0
-64 -65 -9 -54 -58 -61 -66 -10 -55 -59 -62 -11 -56 -60 -63 -6 -7 -8 -52 -53 -57 0
-64 -62 -59 -55 -10 -66 -61 -58 -54 -9 -65 -57 -53 -8 -63 -52 -7 -60 -6 -56 -11 0
-66 -10 -55 -59 -62 -64 -11 -56 -60 -63 -65 -6 -7 -8 -9 -52 -53 -54 -57 -58 -61 0
-11 -56 -60 -63 -65 -66 -6 -7 -8 -9 -10 -52 -53 -54 -55 -57 -58 -59 -61 -62 -64 0
-66 -65 -63 -60 -56 -11 -64 -62 -59 -55 -10 -61 -58 -54 -9 -57 -53 -8 -52 -7 -6 0
-12 -13 -14 -15 -16 -17 -22 -23 -24 -25 -26 -31 -32 -33 -34 -39 -40 -41 -46 -47 -52 0
-17 -16 -15 -14 -13 -12 -52 -47 -41 -34 -26 -46 -40 -33 -25 -39 -32 -24 -31 -23 -22 0
-12 -26 -25 -24 -23 -22 -17 -16 -15 -14 -13 -52 -47 -41 -34 -46 -40 -33 -39 -32 -31 0
-22 -23 -24 -25 -26 -12 -31 -32 -33 -34 -13 -39 -40 -41 -14 -46 -47 -15 -52 -16 -17 0
-22 -13 -34 -33 -32 -31 -12 -26 -25 -24 -23 -17 -16 -15 -14 -52 -47 -41 -46 -40 -39 0
-31 -32 -33 -34 -13 -22 -39 -40 -41 -14 -23 -46 -47 -15 -24 -52 -16 -25 -17 -26 -12 0
-31 -23 -14 -41 -40 -39 -22 -13 -34 -33 -32 -12 -26 -25 -24 -17 -16 -15 -52 -47 -46 0
-39 -40 -41 -14 -23 -31 -46 -47 -15 -24 -32 -52 -16 -25 -33 -17 -26 -34 -12 -13 -22 0
-39 -32 -24 -15 -47 -46 -31 -23 -14 -41 -40 -22 -13 -34 -33 -12 -26 -25 -17 -16 -52 0
-46 -47 -15 -24 -32 -39 -52 -16 -25 -33 -40 -17 -26 -34 -41 -12 -13 -14 -22 -23 -31 0
-46 -40 -33 -25 -16 -52 -39 -32 -24 -15 -47 -31 -23 -14 -41 -22 -13 -34 -12 -26 -17 0
-52 -16 -25 -33 -40 -46 -17 -26 -34 -41 -47 -12 -13 -14 -15 -22 -23 -24 -31 -32 -39 0
-17 -26 -34 -41 -47 -52 -12 -13 -14 -15 -16 -22 -23 -24 -25 -31 -32 -33 -39 -40 -46 0
-52 -47 -41 -34 -26 -17 -46 -40 -33 -25 -16 -39 -32 -24 -15 -31 -23 -14 -22 -13 -12 0
-12 -13 -14 -15 -16 -18 -22 -23 -24 -25 -27 -31 -32 -33 -35 -39 -40 -42 -46 -48 -53 0
-18 -16 -15 -14 -13 -12 -53 -48 -42 -35 -27 -46 -40 -33 -25 -39 -32 -24 -31 -23 -22 0
-12 -27 -25 -24 -23 -22 -18 -16 -15 -14 -13 -53 -48 -42 -35 -46 -40 -33 -39 -32 -31 0
-22 -23 -24 -25 -27 -12 -31 -32 -33 -35 -13 -39 -40 -42 -14 -46 -48 -15 -53 -16 -18 0
-22 -13 -35 -33 -32 -31 -12 -27 -25 -24 -23 -18 -16 -15 -14 -53 -48 -42 -46 -40 -39 0
-31 -32 -33 -35 -13 -22 -39 -40 -42 -14 -23 -46 -48 -15 -24 -53 -16 -25 -18 -27 -12 0
-31 -23 -14 -42 -40 -39 -22 -13 -35 -33 -32 -12 -27 -25 -24 -18 -16 -15 -53 -48 -46 0
-39 -40 -42 -14 -23 -31 -46 -48 -15 -24 -32 -53 -16 -25 -33 -18 -27 -35 -12 -13 -22 0
-39 -32 -24 -15 -48 -46 -31 -23 -14 -42 -40 -22 -13 -35 -33 -12 -27 -25 -18 -16 -53 0
-46 -48 -15 -24 -32 -39 -53 -16 -25 -33 -40 -18 -27 -35 -42 -12 -13 -14 -22 -23 -31 0
-46 -40 -33 -25 -16 -53 -39 -32 -24 -15 -48 -31 -23 -14 -42 -22 -13 -35 -12 -27 -18 0
-53 -16 -25 -33 -40 -46 -18 -27 -35 -42 -48 -12 -13 -14 -15 -22 -23 -24 -31 -32 -39 0
-18 -27 -35 -42 -48 -53 -12 -13 -14 -15 -16 -22 -23 -24 -25 -31 -32 -33 -39 -40 -46 0
-53 -48 -42 -35 -27 -18 -46 -40 -33 -25 -16 -39 -32 -24 -15 -31 -23 -14 -22 -13 -12 0
-12 -13 -14 -15 -16 -19 -22 -23 -24 -25 -28 -31 -32 -33 -36 -39 -40 -43 -46 -49 -54 0
-19 -16 -15 -14 -13 -12 -54 -49 -43 -36 -28 -46 -40 -33 -25 -39 -32 -24 -31 -23 -22 0
-12 -28 -25 -24 -23 -22 -19 -16 -15 -14 -13 -54 -49 -43 -36 -46 -40 -33 -39 -32 -31 0
-22 -23 -24 -25 -28 -12 -31 -32 -33 -36 -13 -39 -40 -43 -14 -46 -49 -15 -54 -16 -19 0
-22 -13 -36 -33 -32 -31 -12 -28 -25 -24 -23 -19 -16 -15 -14 -54 -49 -43 -46 -40 -39 0
-31 -32 -33 -36 -13 -22 -39 -40 -43 -14 -23 -46 -49 -15 -24 -54 -16 -25 -19 -28 -12 0
-31 -23 -14 -43 -40 -39 -22 -13 -36 -33 -32 -12 -28 -25 -24 -19 -16 -15 -54 -49 -46 0
-39 -40 -43 -14 -23 -31 -46 -49 -15 -24 -32 -54 -16 -25 -33 -19 -28 -36 -12 -13 -22 0
-39 -32 -24 -15 -49 -46 -31 -23 -14 -43 -40 -22 -13 -36 -33 -12 -28 -25 -19 -16 -54 0
-46 -49 -15 -24 -32 -39 -54 -16 -25 -33 -40 -19 -28 -36 -43 -12 -13 -14 -22 -23 -31 0
-46 -40 -33 -25 -16 -54 -39 -32 -24 -15 -49 -31 -23 -14 -43 -22 -13 -36 -12 -28 -19 0
-54 -16 -25 -33 -40 -46 -19 -28 -36 -43 -49 -12 -13 -14 -15 -22 -23 -24 -31 -32 -39 0
-19 -28 -36 -43 -49 -54 -12 -13 -14 -15 -16 -22 -23 -24 -25 -31 -32 -33 -39 -40 -46 0
-54 -49 -43 -36 -28 -19 -46 -40 -33 -25 -16 -39 -32 -24 -15 -31 -23 -14 -22 -13 -12 0
-12 -13 -14 -15 -16 -20 -22 -23 -24 -25 -29 -31 -32 -33 -37 -39 -40 -44 -46 -50 -55 0
-20 -16 -15 -14 -13 -12 -55 -50 -44 -37 -29 -46 -40 -33 -25 -39 -32 -24 -31 -23 -22 0
-12 -29 -25 -24 -23 -22 -20 -16 -15 -14 -13 -55 -50 -44 -37 -46 -40 -33 -39 -32 -31 0
-22 -23 -24 -25 -29 -12 -31 -32 -33 -37 -13 -39 -40 -44 -14 -46 -50 -15 -55 -16 -20 0
-22 -13 -37 -33 -32 -31 -12 -29 -25 -24 -23 -20 -16 -15 -14 -55 -50 -44 -46 -40 -39 0
-31 -32 -33 -37 -13 -22 -39 -40 -44 -14 -23 -46 -50 -15 -24 -55 -16 -25 -20 -29 -12 0
-31 -23 -14 -44 -40 -39 -22 -13 -37 -33 -32 -12 -29 -25 -24 -20 -16 -15 -55 -50 -46 0
-39 -40 -44 -14 -23 -31 -46 -50 -15 -24 -32 -55 -16 -25 -33 -20 -29 -37 -12 -13 -22 0
-39 -32 -24 -15 -50 -46 -31 -23 -14 -44 -40 -22 -13 -37 -33 -12 -29 -25 -20 -16 -55 0
-46 -50 -15 -24 -32 -39 -55 -16 -25 -33 -40 -20 -29 -37 -44 -12 -13 -14 -22 -23 -31 0
-46 -40 -33 -25 -16 -55 -39 -32 -24 -15 -50 -31 -23 -14 -44 -22 -13 -37 -12 -29 -20 0
-55 -16 -25 -33 -40 -46 -20 -29 -37 -44 -50 -12 -13 -14 -15 -22 -23 -24 -31 -32 -39 0
-20 -29 -37 -44 -50 -55 -12 -13 -14 -15 -16 -22 -23 -24 -25 -31 -32 -33 -39 -40 -46 0
-55 -50 -44 -37 -29 -20 -46 -40 -33 -25 -16 -39 -32 -24 -15 -31 -23 -14 -22 -13 -12 0
-12 -13 -14 -15 -16 -21 -22 -23 -24 -25 -30 -31 -32 -33 -38 -39 -40 -45 -46 -51 -56 0
-21 -16 -15 -14 -13 -12 -56 -51 -45 -38 -30 -46 -40 -33 -25 -39 -32 -24 -31 -23 -22 0
-12 -30 -25 -24 -23 -22 -21 -16 -15 -14 -13 -56 -51 -45 -38 -46 -40 -33 -39 -32 -31 0
-22 -23 -24 -25 -30 -12 -31 -32 -33 -38 -13 -39 -40 -45 -14 -46 -51 -15 -56 -16 -21 0
-22 -13 -38 -33 -32 -31 -12 -30 -25 -24 -23 -21 -16 -15 -14 -56 -51 -45 -46 -40 -39 0
-31 -32 -33 -38 -13 -22 -39 -40 -45 -14 -23 -46 -51 -15 -24 -56 -16 -25 -21 -30 -12 0
-31 -23 -14 -45 -40 -39 -22 -13 -38 -33 -32 -12 -30 -25 -24 -21 -16 -15 -56 -51 -46 0
-39 -40 -45 -14 -23 -31 -46 -51 -15 -24 -32 -56 -16 -25 -33 -21 -30 -38 -12 -13 -22 0
-39 -32 -24 -15 -51 -46 -31 -23 -14 -45 -40 -22 -13 -38 -33 -12 -30 -25 -21 -16 -56 0
-46 -51 -15 -24 -32 -39 -56 -16 -25 -33 -40 -21 -30 -38 -45 -12 -13 -14 -22 -23 -31 0
-46 -40 -33 -25 -16 -56 -39 -32 -24 -15 -51 -31 -23 -14 -45 -22 -13 -38 -12 -30 -21 0
-56 -16 -25 -33 -40 -46 -21 -30 -38 -45 -51 -12 -13 -14 -15 -22 -23 -24 -31 -32 -39 0
-21 -30 -38 -45 -51 -56 -12 -13 -14 -15 -16 -22 -23 -24 -25 -31 -32 -33 -39 -40 -46 0
-56 -51 -45 -38 -30 -21 -46 -40 -33 -25 -16 -39 -32 -24 -15 -31 -23 -14 -22 -13 -12 0
-12 -13 -14 -15 -17 -18 -22 -23 -24 -26 -27 -31 -32 -34 -35 -39 -41 -42 -47 -48 -57 0
-18 -17 -15 -14 -13 -12 -57 -48 -42 -35 -27 -47 -41 -34 -26 -39 -32 -24 -31 -23 -22 0
-12 -27 -26 -24 -23 -22 -18 -17 -15 -14 -13 -57 -48 -42 -35 -47 -41 -34 -39 -32 -31 0
-22 -23 -24 -26 -27 -12 -31 -32 -34 -35 -13 -39 -41 -42 -14 -47 -48 -15 -57 -17 -18 0
-22 -13 -35 -34 -32 -31 -12 -27 -26 -24 -23 -18 -17 -15 -14 -57 -48 -42 -47 -41 -39 0
-31 -32 -34 -35 -13 -22 -39 -41 -42 -14 -23 -47 -48 -15 -24 -57 -17 -26 -18 -27 -12 0
-31 -23 -14 -42 -41 -39 -22 -13 -35 -34 -32 -12 -27 -26 -24 -18 -17 -15 -57 -48 -47 0
-39 -41 -42 -14 -23 -31 -47 -48 -15 -24 -32 -57 -17 -26 -34 -18 -27 -35 -12 -13 -22 0
-39 -32 -24 -15 -48 -47 -31 -23 -14 -42 -41 -22 -13 -35 -34 -12 -27 -26 -18 -17 -57 0
-47 -48 -15 -24 -32 -39 -57 -17 -26 -34 -41 -18 -27 -35 -42 -12 -13 -14 -22 -23 -31 0
-47 -41 -34 -26 -17 -57 -39 -32 -24 -15 -48 -31 -23 -14 -42 -22 -13 -35 -12 -27 -18 0
-57 -17 -26 -34 -41 -47 -18 -27 -35 -42 -48 -12 -13 -14 -15 -22 -23 -24 -31 -32 -39 0
-18 -27 -35 -42 -48 -57 -12 -13 -14 -15 -17 -22 -23 -24 -26 -31 -32 -34 -39 -41 -47 0
-57 -48 -42 -35 -27 -18 -47 -41 -34 -26 -17 -39 -32 -24 -15 -31 -23 -14 -22 -13 -12 0
-12 -13 -14 -15 -17 -19 -22 -23 -24 -26 -28 -31 -32 -34 -36 -39 -41 -43 -47 -49 -58 0
-19 -17 -15 -14 -13 -12 -58 -49 -43 -36 -28 -47 -41 -34 -26 -39 -32 -24 -31 -23 -22 0
-12 -28 -26 -24 -23 -22 -19 -17 -15 -14 -13 -58 -49 -43 -36 -47 -41 -34 -39 -32 -31 0
-22 -23 -24 -26 -28 -12 -31 -32 -34 -36 -13 -39 -41 -43 -14 -47 -49 -15 -58 -17 -19 0
-22 -13 -36 -34 -32 -31 -12 -28 -26 -24 -23 -19 -17 -15 -14 -58 -49 -43 -47 -41 -39 0
-31 -32 -34 -36 -13 -22 -39 -41 -43 -14 -23 -47 -49 -15 -24 -58 -17 -26 -19 -28 -12 0
-31 -23 -14 -43 -41 -39 -22 -13 -36 -34 -32 -12 -28 -26 -24 -19 -17 -15 -58 -49 -47 0
-39 -41 -43 -14 -23 -31 -47 -49 -15 -24 -32 -58 -17 -26 -34 -19 -28 -36 -12 -13 -22 0
-39 -32 -24 -15 -49 -47 -31 -23 -14 -43 -41 -22 -13 -36 -34 -12 -28 -26 -19 -17 -58 0
-47 -49 -15 -24 -32 -39 -58 -17 -26 -34 -41 -19 -28 -36 -43 -12 -13 -14 -22 -23 -31 0
-47 -41 -34 -26 -17 -58 -39 -32 -24 -15 -49 -31 -23 -14 -43 -22 -13 -36 -12 -28 -19 0
-58 -17 -26 -34 -41 -47 -19 -28 -36 -43 -49 -12 -13 -14 -15 -22 -23 -24 -31 -32 -39 0
-19 -28 -36 -43 -49 -58 -12 -13 -14 -15 -17 -22 -23 -24 -26 -31 -32 -34 -39 -41 -47 0
-58 -49 -43 -36 -28 -19 -47 -41 -34 -26 -17 -39 -32 -24 -15 -31 -23 -14 -22 -13 -12 0
-12 -13 -14 -15 -17 -20 -22 -23 -24 -26 -29 -31 -32 -34 -37 -39 -41 -44 -47 -50 -59 0
-20 -17 -15 -14 -13 -12 -59 -50 -44 -37 -29 -47 -41 -34 -26 -39 -32 -24 -31 -23 -22 0
-12 -29 -26 -24 -23 -22 -20 -17 -15 -14 -13 -59 -50 -44 -37 -47 -41 -34 -39 -32 -31 0
-22 -23 -24 -26 -29 -12 -31 -32 -34 -37 -13 -39 -41 -44 -14 -47 -50 -15 -59 -17 -20 0
-22 -13 -37 -34 -32 -31 -12 -29 -26 -24 -23 -20 -17 -15 -14 -59 -50 -44 -47 -41 -39 0
-31 -32 -34 -37 -13 -22 -39 -41 -44 -14 -23 -47 -50 -15 -24 -59 -17 -26 -20 -29 -12 0
-31 -23 -14 -44 -41 -39 -22 -13 -37 -34 -32 -12 -29 -26 -24 -20 -17 -15 -59 -50 -47 0
-39 -41 -44 -14 -23 -31 -47 -50 -15 -24 -32 -59 -17 -26 -34 -20 -29 -37 -12 -13 -22 0
-39 -32 -24 -15 -50 -47 -31 -23 -14 -44 -41 -22 -13 -37 -34 -12 -29 -26 -20 -17 -59 0
-47 -50 -15 -24 -32 -39 -59 -17 -26 -34 -41 -20 -29 -37 -44 -12 -13 -14 -22 -23 -31 0
-47 -41 -34 -26 -17 -59 -39 -32 -24 -15 -50 -31 -23 -14 -44 -22 -13 -37 -12 -29 -20 0
-59 -17 -26 -34 -41 -47 -20 -29 -37 -44 -50 -12 -13 -14 -15 -22 -23 -24 -31 -32 -39 0
-20 -29 -37 -44 -50 -59 -12 -13 -14 -15 -17 -22 -23 -24 -26 -31 -32 -34 -39 -41 -47 0
-59 -50 -44 -37 -29 -20 -47 -41 -34 -26 -17 -39 -32 -24 -15 -31 -23 -14 -22 -13 -12 0
-12 -13 -14 -15 -17 -21 -22 -23 -24 -26 -30 -31 -32 -34 -38 -39 -41 -45 -47 -51 -60 0
-21 -17 -15 -14 -13 -12 -60 -51 -45 -38 -30 -47 -41 -34 -26 -39 -32 -24 -31 -23 -22 0
-12 -30 -26 -24 -23 -22 -21 -17 -15 -14 -13 -60 -51 -45 -38 -47 -41 -34 -39 -32 -31 0
-22 -23 -24 -26 -30 -12 -31 -32 -34 -38 -13 -39 -41 -45 -14 -47 -51 -15 -60 -17 -21 0
-22 -13 -38 -34 -32 -31 -12 -30 -26 -24 -23 -21 -17 -15 -14 -60 -51 -45 -47 -41 -39 0
-31 -32 -34 -38 -13 -22 -39 -41 -45 -14 -23 -47 -51 -15 -24 -60 -17 -26 -21 -30 -12 0
-31 -23 -14 -45 -41 -39 -22 -13 -38 -34 -32 -12 -30 -26 -24 -21 -17 -15 -60 -51 -47 0
-39 -41 -45 -14 -23 -31 -47 -51 -15 -24 -32 -60 -17 -26 -34 -21 -30 -38 -12 -13 -22 0
-39 -32 -24 -15 -51 -47 -31 -23 -14 -45 -41 -22 -13 -38 -34 -12 -30 -26 -21 -17 -60 0
-47 -51 -15 -24 -32 -39 -60 -17 -26 -34 -41 -21 -30 -38 -45 -12 -13 -14 -22 -23 -31 0
-47 -41 -34 -26 -17 -60 -39 -32 -24 -15 -51 -31 -23 -14 -45 -22 -13 -38 -12 -30 -21 0
-60 -17 -26 -34 -41 -47 -21 -30 -38 -45 -51 -12 -13 -14 -15 -22 -23 -24 -31 -32 -39 0
-21 -30 -38 -45 -51 -60 -12 -13 -14 -15 -17 -22 -23 -24 -26 -31 -32 -34 -39 -41 -47 0
-60 -51 -45 -38 -30 -21 -47 -41 -34 -26 -17 -39 -32 -24 -15 -31 -23 -14 -22 -13 -12 0
-12 -13 -14 -15 -18 -19 -22 -23 -24 -27 -28 -31 -32 -35 -36 -39 -42 -43 -48 -49 -61 0
-19 -18 -15 -14 -13 -12 -61 -49 -43 -36 -28 -48 -42 -35 -27 -39 -32 -24 -31 -23 -22 0
-12 -28 -27 -24 -23 -22 -19 -18 -15 -14 -13 -61 -49 -43 -36 -48 -42 -35 -39 -32 -31 0
-22 -23 -24 -27 -28 -12 -31 -32 -35 -36 -13 -39 -42 -43 -14 -48 -49 -15 -61 -18 -19 0
-22 -13 -36 -35 -32 -31 -12 -28 -27 -24 -23 -19 -18 -15 -14 -61 -49 -43 -48 -42 -39 0
-31 -32 -35 -36 -13 -22 -39 -42 -43 -14 -23 -48 -49 -15 -24 -61 -18 -27 -19 -28 -12 0
-31 -23 -14 -43 -42 -39 -22 -13 -36 -35 -32 -12 -28 -27 -24 -19 -18 -15 -61 -49 -48 0
-39 -42 -43 -14 -23 -31 -48 -49 -15 -24 -32 -61 -18 -27 -35 -19 -28 -36 -12 -13 -22 0
-39 -32 -24 -15 -49 -48 -31 -23 -14 -43 -42 -22 -13 -36 -35 -12 -28 -27 -19 -18 -61 0
-48 -49 -15 -24 -32 -39 -61 -18 -27 -35 -42 -19 -28 -36 -43 -12 -13 -14 -22 -23 -31 0
-48 -42 -35 -27 -18 -61 -39 -32 -24 -15 -49 -31 -23 -14 -43 -22 -13 -36 -12 -28 -19 0
-61 -18 -27 -35 -42 -48 -19 -28 -36 -43 -49 -12 -13 -14 -15 -22 -23 -24 -31 -32 -39 0
-19 -28 -36 -43 -49 -61 -12 -13 -14 -15 -18 -22 -23 -24 -27 -31 -32 -35 -39 -42 -48 0
-61 -49 -43 -36 -28 -19 -48 -42 -35 -27 -18 -39 -32 -24 -15 -31 -23 -14 -22 -13 -12 0
-12 -13 -14 -15 -18 -20 -22 -23 -24 -27 -29 -31 -32 -35 -37 -39 -42 -44 -48 -50 -62 0
-20 -18 -15 -14 -13 -12 -62 -50 -44 -37 -29 -48 -42 -35 -27 -39 -32 -24 -31 -23 -22 0
-12 -29 -27 -24 -23 -22 -20 -18 -15 -14 -13 -62 -50 -44 -37 -48 -42 -35 -39 -32 -31 0
-22 -23 -24 -27 -29 -12 -31 -32 -35 -37 -13 -39 -42 -44 -14 -48 -50 -15 -62 -18 -20 0
-22 -13 -37 -35 -32 -31 -12 -29 -27 -24 -23 -20 -18 -15 -14 -62 -50 -44 -48 -42 -39 0
-31 -32 -35 -37 -13 -22 -39 -42 -44 -14 -23 -48 -50 -15 -24 -62 -18 -27 -20 -29 -12 0
-31 -23 -14 -44 -42 -39 -22 -13 -37 -35 -32 -12 -29 -27 -24 -20 -18 -15 -62 -50 -48 0
-39 -42 -44 -14 -23 -31 -48 -50 -15 -24 -32 -62 -18 -27 -35 -20 -29 -37 -12 -13 -22 0
-39 -32 -24 -15 -50 -48 -31 -23 -14 -44 -42 -22 -13 -37 -35 -12 -29 -27 -20 -18 -62 0
-48 -50 -15 -24 -32 -39 -62 -18 -27 -35 -42 -20 -29 -37 -44 -12 -13 -14 -22 -23 -31 0
-48 -42 -35 -27 -18 -62 -39 -32 -24 -15 -50 -31 -23 -14 -44 -22 -13 -37 -12 -29 -20 0
-62 -18 -27 -35 -42 -48 -20 -29 -37 -44 -50 -12 -13 -14 -15 -22 -23 -24 -31 -32 -39 0
-20 -29 -37 -44 -50 -62 -12 -13 -14 -15 -18 -22 -23 -24 -27 -31 -32 -35 -39 -42 -48 0
-62 -50 -44 -37 -29 -20 -48 -42 -35 -27 -18 -39 -32 -24 -15 -31 -23 -14 -22 -13 -12 0
-12 -13 -14 -15 -18 -21 -22 -23 -24 -27 -30 -31 -32 -35 -38 -39 -42 -45 -48 -51 -63 0
-21 -18 -15 -14 -13 -12 -63 -51 -45 -38 -30 -48 -42 -35 -27 -39 -32 -24 -31 -23 -22 0
-12 -30 -27 -24 -23 -22 -21 -18 -15 -14 -13 -63 -51 -45 -38 -48 -42 -35 -39 -32 -31 0
-22 -23 -24 -27 -30 -12 -31 -32 -35 -38 -13 -39 -42 -45 -14 -48 -51 -15 -63 -18 -21 0
-22 -13 -38 -35 -32 -31 -12 -30 -27 -24 -23 -21 -18 -15 -14 -63 -51 -45 -48 -42 -39 0
-31 -32 -35 -38 -13 -22 -39 -42 -45 -14 -23 -48 -51 -15 -24 -63 -18 -27 -21 -30 -12 0
-31 -23 -14 -45 -42 -39 -22 -13 -38 -35 -32 -12 -30 -27 -24 -21 -18 -15 -63 -51 -48 0
-39 -42 -45 -14 -23 -31 -48 -51 -15 -24 -32 -63 -18 -27 -35 -21 -30 -38 -12 -13 -22 0
-39 -32 -24 -15 -51 -48 -31 -23 -14 -45 -42 -22 -13 -38 -35 -12 -30 -27 -21 -18 -63 0
-48 -51 -15 -24 -32 -39 -63 -18 -27 -35 -42 -21 -30 -38 -45 -12 -13 -14 -22 -23 -31 0
-48 -42 -35 -27 -18 -63 -39 -32 -24 -15 -51 -31 -23 -14 -45 -22 -13 -38 -12 -30 -21 0
-63 -18 -27 -35 -42 -48 -21 -30 -38 -45 -51 -12 -13 -14 -15 -22 -23 -24 -31 -32 -39 0
-21 -30 -38 -45 -51 -63 -12 -13 -14 -15 -18 -22 -23 -24 -27 -31 -32 -35 -39 -42 -48 0
-63 -51 -45 -38 -30 -21 -48 -42 -35 -27 -18 -39 -32 -24 -15 -31 -23 -14 -22 -13 -12 0
-12 -13 -14 -15 -19 -20 -22 -23 -24 -28 -29 -31 -32 -36 -37 -39 -43 -44 -49 -50 -64 0
-20 -19 -15 -14 -13 -12 -64 -50 -44 -37 -29 -49 -43 -36 -28 -39 -32 -24 -31 -23 -22 0
-12 -29 -28 -24 -23 -22 -20 -19 -15 -14 -13 -64 -50 -44 -37 -49 -43 -36 -39 -32 -31 0
-22 -23 -24 -28 -29 -12 -31 -32 -36 -37 -13 -39 -43 -44 -14 -49 -50 -15 -64 -19 -20 0
-22 -13 -37 -36 -32 -31 -12 -29 -28 -24 -23 -20 -19 -15 -14 -64 -50 -44 -49 -43 -39 0
-31 -32 -36 -37 -13 -22 -39 -43 -44 -14 -23 -49 -50 -15 -24 -64 -19 -28 -20 -29 -12 0
-31 -23 -14 -44 -43 -39 -22 -13 -37 -36 -32 -12 -29 -28 -24 -20 -19 -15 -64 -50 -49 0
-39 -43 -44 -14 -23 -31 -49 -50 -15 -24 -32 -64 -19 -28 -36 -20 -29 -37 -12 -13 -22 0
-39 -32 -24 -15 -50 -49 -31 -23 -14 -44 -43 -22 -13 -37 -36 -12 -29 -28 -20 -19 -64 0
-49 -50 -15 -24 -32 -39 -64 -19 -28 -36 -43 -20 -29 -37 -44 -12 -13 -14 -22 -23 -31 0
-49 -43 -36 -28 -19 -64 -39 -32 -24 -15 -50 -31 -23 -14 -44 -22 -13 -37 -12 -29 -20 0
-64 -19 -28 -36 -43 -49 -20 -29 -37 -44 -50 -12 -13 -14 -15 -22 -23 -24 -31 -32 -39 0
-20 -29 -37 -44 -50 -64 -12 -13 -14 -15 -19 -22 -23 -24 -28 -31 -32 -36 -39 -43 -49 0
-64 -50 -44 -37 -29 -20 -49 -43 -36 -28 -19 -39 -32 -24 -15 -31 -23 -14 -22 -13 -12 0
-12 -13 -14 -15 -19 -21 -22 -23 -24 -28 -30 -31 -32 -36 -38 -39 -43 -45 -49 -51 -65 0
-21 -19 -15 -14 -13 -12 -65 -51 -45 -38 -30 -49 -43 -36 -28 -39 -32 -24 -31 -23 -22 0
-12 -30 -28 -24 -23 -22 -21 -19 -15 -14 -13 -65 -51 -45 -38 -49 -43 -36 -39 -32 -31 0
-22 -23 -24 -28 -30 -12 -31 -32 -36 -38 -13 -39 -43 -45 -14 -49 -51 -15 -65 -19 -21 0
-22 -13 -38 -36 -32 -31 -12 -30 -28 -24 -23 -21 -19 -15 -14 -65 -51 -45 -49 -43 -39 0
-31 -32 -36 -38 -13 -22 -39 -43 -45 -14 -23 -49 -51 -15 -24 -65 -19 -28 -21 -30 -12 0
-31 -23 -14 -45 -43 -39 -22 -13 -38 -36 -32 -12 -30 -28 -24 -21 -19 -15 -65 -51 -49 0
-39 -43 -45 -14 -23 -31 -49 -51 -15 -24 -32 -65 -19 -28 -36 -21 -30 -38 -12 -13 -22 0
-39 -32 -24 -15 -51 -49 -31 -23 -14 -45 -43 -22 -13 -38 -36 -12 -30 -28 -21 -19 -65 0
-49 -51 -15 -24 -32 -39 -65 -19 -28 -36 -43 -21 -30 -38 -45 -12 -13 -14 -22 -23 -31 0
-49 -43 -36 -28 -19 -65 -39 -32 -24 -15 -51 -31 -23 -14 -45 -22 -13 -38 -12 -30 -21 0
-65 -19 -28 -36 -43 -49 -21 -30 -38 -45 -51 -12 -13 -14 -15 -22 -23 -24 -31 -32 -39 0
-21 -30 -38 -45 -51 -65 -12 -13 -14 -15 -19 -22 -23 -24 -28 -31 -32 -36 -39 -43 -49 0
-65 -51 -45 -38 -30 -21 -49 -43 -36 -28 -19 -39 -32 -24 -15 -31 -23 -14 -22 -13 -12 0
-12 -13 -14 -15 -20 -21 -22 -23 -24 -29 -30 -31 -32 -37 -38 -39 -44 -45 -50 -51 -66 0
-21 -20 -15 -14 -13 -12 -66 -51 -45 -38 -30 -50 -44 -37 -29 -39 -32 -24 -31 -23 -22 0
-12 -30 -29 -24 -23 -22 -21 -20 -15 -14 -13 -66 -51 -45 -38 -50 -44 -37 -39 -32 -31 0
-22 -23 -24 -29 -30 -12 -31 -32 -37 -38 -13 -39 -44 -45 -14 -50 -51 -15 -66 -20 -21 0
-22 -13 -38 -37 -32 -31 -12 -30 -29 -24 -23 -21 -20 -15 -14 -66 -51 -45 -50 -44 -39 0
-31 -32 -37 -38 -13 -22 -39 -44 -45 -14 -23 -50 -51 -15 -24 -66 -20 -29 -21 -30 -12 0
-31 -23 -14 -45 -44 -39 -22 -13 -38 -37 -32 -12 -30 -29 -24 -21 -20 -15 -66 -51 -50 0
-39 -44 -45 -14 -23 -31 -50 -51 -15 -24 -32 -66 -20 -29 -37 -21 -30 -38 -12 -13 -22 0
-39 -32 -24 -15 -51 -50 -31 -23 -14 -45 -44 -22 -13 -38 -37 -12 -30 -29 -21 -20 -66 0
-50 -51 -15 -24 -32 -39 -66 -20 -29 -37 -44 -21 -30 -38 -45 -12 -13 -14 -22 -23 -31 0
-50 -44 -37 -29 -20 -66 -39 -32 -24 -15 -51 -31 -23 -14 -45 -22 -13 -38 -12 -30 -21 0
-66 -20 -29 -37 -44 -50 -21 -30 -38 -45 -51 -12 -13 -14 -15 -22 -23 -24 -31 -32 -39 0
-21 -30 -38 -45 -51 -66 -12 -13 -14 -15 -20 -22 -23 -24 -29 -31 -32 -37 -39 -44 -50 0
-66 -51 -45 -38 -30 -21 -50 -44 -37 -29 -20 -39 -32 -24 -15 -31 -23 -14 -22 -13 -12 0
-12 -13 -14 -16 -17 -18 -22 -23 -25 -26 -27 -31 -33 -34 -35 -40 -41 -42 -52 -53 -57 0
-18 -17 -16 -14 -13 -12 -57 -53 -42 -35 -27 -52 -41 -34 -26 -40 -33 -25 -31 -23 -22 0
-12 -27 -26 -25 -23 -22 -18 -17 -16 -14 -13 -57 -53 -42 -35 -52 -41 -34 -40 -33 -31 0
-22 -23 -25 -26 -27 -12 -31 -33 -34 -35 -13 -40 -41 -42 -14 -52 -53 -16 -57 -17 -18 0
-22 -13 -35 -34 -33 -31 -12 -27 -26 -25 -23 -18 -17 -16 -14 -57 -53 -42 -52 -41 -40 0
-31 -33 -34 -35 -13 -22 -40 -41 -42 -14 -23 -52 -53 -16 -25 -57 -17 -26 -18 -27 -12 0
-31 -23 -14 -42 -41 -40 -22 -13 -35 -34 -33 -12 -27 -26 -25 -18 -17 -16 -57 -53 -52 0
-40 -41 -42 -14 -23 -31 -52 -53 -16 -25 -33 -57 -17 -26 -34 -18 -27 -35 -12 -13 -22 0
-40 -33 -25 -16 -53 -52 -31 -23 -14 -42 -41 -22 -13 -35 -34 -12 -27 -26 -18 -17 -57 0
-52 -53 -16 -25 -33 -40 -57 -17 -26 -34 -41 -18 -27 -35 -42 -12 -13 -14 -22 -23 -31 0
-52 -41 -34 -26 -17 -57 -40 -33 -25 -16 -53 -31 -23 -14 -42 -22 -13 -35 -12 -27 -18 0
-57 -17 -26 -34 -41 -52 -18 -27 -35 -42 -53 -12 -13 -14 -16 -22 -23 -25 -31 -33 -40 0
-18 -27 -35 -42 -53 -57 -12 -13 -14 -16 -17 -22 -23 -25 -26 -31 -33 -34 -40 -41 -52 0
-57 -53 -42 -35 -27 -18 -52 -41 -34 -26 -17 -40 -33 -25 -16 -31 -23 -14 -22 -13 -12 0
-12 -13 -14 -16 -17 -19 -22 -23 -25 -26 -28 -31 -33 -34 -36 -40 -41 -43 -52 -54 -58 0
-19 -17 -16 -14 -13 -12 -58 -54 -43 -36 -28 -52 -41 -34 -26 -40 -33 -25 -31 -23 -22 0
-12 -28 -26 -25 -23 -22 -19 -17 -16 -14 -13 -58 -54 -43 -36 -52 -41 -34 -40 -33 -31 0
-22 -23 -25 -26 -28 -12 -31 -33 -34 -36 -13 -40 -41 -43 -14 -52 -54 -16 -58 -17 -19 0
-22 -13 -36 -34 -33 -31 -12 -28 -26 -25 -23 -19 -17 -16 -14 -58 -54 -43 -52 -41 -40 0
-31 -33 -34 -36 -13 -22 -40 -41 -43 -14 -23 -52 -54 -16 -25 -58 -17 -26 -19 -28 -12 0
-31 -23 -14 -43 -41 -40 -22 -13 -36 -34 -33 -12 -28 -26 -25 -19 -17 -16 -58 -54 -52 0
-40 -41 -43 -14 -23 -31 -52 -54 -16 -25 -33 -58 -17 -26 -34 -19 -28 -36 -12 -13 -22 0
-40 -33 -25 -16 -54 -52 -31 -23 -14 -43 -41 -22 -13 -36 -34 -12 -28 -26 -19 -17 -58 0
-52 -54 -16 -25 -33 -40 -58 -17 -26 -34 -41 -19 -28 -36 -43 -12 -13 -14 -22 -23 -31 0
-52 -41 -34 -26 -17 -58 -40 -33 -25 -16 -54 -31 -23 -14 -43 -22 -13 -36 -12 -28 -19 0
-58 -17 -26 -34 -41 -52 -19 -28 -36 -43 -54 -12 -13 -14 -16 -22 -23 -25 -31 -33 -40 0
-19 -28 -36 -43 -54 -58 -12 -13 -14 -16 -17 -22 -23 -25 -26 -31 -33 -34 -40 -41 -52 0
-58 -54 -43 -36 -28 -19 -52 -41 -34 -26 -17 -40 -33 -25 -16 -31 -23 -14 -22 -13 -12 0
-12 -13 -14 -16 -17 -20 -22 -23 -25 -26 -29 -31 -33 -34 -37 -40 -41 -44 -52 -55 -59 0
-20 -17 -16 -14 -13 -12 -59 -55 -44 -37 -29 -52 -41 -34 -26 -40 -33 -25 -31 -23 -22 0
-12 -29 -26 -25 -23 -22 -20 -17 -16 -14 -13 -59 -55 -44 -37 -52 -41 -34 -40 -33 -31 0
-22 -23 -25 -26 -29 -12 -31 -33 -34 -37 -13 -40 -41 -44 -14 -52 -55 -16 -59 -17 -20 0
-22 -13 -37 -34 -33 -31 -12 -29 -26 -25 -23 -20 -17 -16 -14 -59 -55 -44 -52 -41 -40 0
-31 -33 -34 -37 -13 -22 -40 -41 -44 -14 -23 -52 -55 -16 -25 -59 -17 -26 -20 -29 -12 0
-31 -23 -14 -44 -41 -40 -22 -13 -37 -34 -33 -12 -29 -26 -25 -20 -17 -16 -59 -55 -52 0
-40 -41 -44 -14 -23 -31 -52 -55 -16 -25 -33 -59 -17 -26 -34 -20 -29 -37 -12 -13 -22 0
-40 -33 -25 -16 -55 -52 -31 -23 -14 -44 -41 -22 -13 -37 -34 -12 -29 -26 -20 -17 -59 0
-52 -55 -16 -25 -33 -40 -59 -17 -26 -34 -41 -20 -29 -37 -44 -12 -13 -14 -22 -23 -31 0
-52 -41 -34 -26 -17 -59 -40 -33 -25 -16 -55 -31 -23 -14 -44 -22 -13 -37 -12 -29 -20 0
-59 -17 -26 -34 -41 -52 -20 -29 -37 -44 -55 -12 -13 -14 -16 -22 -23 -25 -31 -33 -40 0
-20 -29 -37 -44 -55 -59 -12 -13 -14 -16 -17 -22 -23 -25 -26 -31 -33 -34 -40 -41 -52 0
-59 -55 -44 -37 -29 -20 -52 -41 -34 -26 -17 -40 -33 -25 -16 -31 -23 -14 -22 -13 -12 0
-12 -13 -14 -16 -17 -21 -22 -23 -25 -26 -30 -31 -33 -34 -38 -40 -41 -45 -52 -56 -60 0
-21 -17 -16 -14 -13 -12 -60 -56 -45 -38 -30 -52 -41 -34 -26 -40 -33 -25 -31 -23 -22 0
-12 -30 -26 -25 -23 -22 -21 -17 -16 -14 -13 -60 -56 -45 -38 -52 -41 -34 -40 -33 -31 0
-22 -23 -25 -26 -30 -12 -31 -33 -34 -38 -13 -40 -41 -45 -14 -52 -56 -16 -60 -17 -21 0
-22 -13 -38 -34 -33 -31 -12 -30 -26 -25 -23 -21 -17 -16 -14 -60 -56 -45 -52 -41 -40 0
-31 -33 -34 -38 -13 -22 -40 -41 -45 -14 -23 -52 -56 -16 -25 -60 -17 -26 -21 -30 -12 0
-31 -23 -14 -45 -41 -40 -22 -13 -38 -34 -33 -12 -30 -26 -25 -21 -17 -16 -60 -56 -52 0
-40 -41 -45 -14 -23 -31 -52 -56 -16 -25 -33 -60 -17 -26 -34 -21 -30 -38 -12 -13 -22 0
-40 -33 -25 -16 -56 -52 -31 -23 -14 -45 -41 -22 -13 -38 -34 -12 -30 -26 -21 -17 -60 0
-52 -56 -16 -25 -33 -40 -60 -17 -26 -34 -41 -21 -30 -38 -45 -12 -13 -14 -22 -23 -31 0
-52 -41 -34 -26 -17 -60 -40 -33 -25 -16 -56 -31 -23 -14 -45 -22 -13 -38 -12 -30 -21 0
-60 -17 -26 -34 -41 -52 -21 -30 -38 -45 -56 -12 -13 -14 -16 -22 -23 -25 -31 -33 -40 0
-21 -30 -38 -45 -56 -60 -12 -13 -14 -16 -17 -22 -23 -25 -26 -31 -33 -34 -40 -41 -52 0
-60 -56 -45 -38 -30 -21 -52 -41 -34 -26 -17 -40 -33 -25 -16 -31 -23 -14 -22 -13 -12 0
-12 -13 -14 -16 -18 -19 -22 -23 -25 -27 -28 -31 -33 -35 -36 -40 -42 -43 -53 -54 -61 0
-19 -18 -16 -14 -13 -12 -61 -54 -43 -36 -28 -53 -42 -35 -27 -40 -33 -25 -31 -23 -22 0
-12 -28 -27 -25 -23 -22 -19 -18 -16 -14 -13 -61 -54 -43 -36 -53 -42 -35 -40 -33 -31 0
-22 -23 -25 -27 -28 -12 -31 -33 -35 -36 -13 -40 -42 -43 -14 -53 -54 -16 -61 -18 -19 0
-22 -13 -36 -35 -33 -31 -12 -28 -27 -25 -23 -19 -18 -16 -14 -61 -54 -43 -53 -42 -40 0
-31 -33 -35 -36 -13 -22 -40 -42 -43 -14 -23 -53 -54 -16 -25 -61 -18 -27 -19 -28 -12 0
-31 -23 -14 -43 -42 -40 -22 -13 -36 -35 -33 -12 -28 -27 -25 -19 -18 -16 -61 -54 -53 0
-40 -42 -43 -14 -23 -31 -53 -54 -16 -25 -33 -61 -18 -27 -35 -19 -28 -36 -12 -13 -22 0
-40 -33 -25 -16 -54 -53 -31 -23 -14 -43 -42 -22 -13 -36 -35 -12 -28 -27 -19 -18 -61 0
-53 -54 -16 -25 -33 -40 -61 -18 -27 -35 -42 -19 -28 -36 -43 -12 -13 -14 -22 -23 -31 0
-53 -42 -35 -27 -18 -61 -40 -33 -25 -16 -54 -31 -23 -14 -43 -22 -13 -36 -12 -28 -19 0
-61 -18 -27 -35 -42 -53 -19 -28 -36 -43 -54 -12 -13 -14 -16 -22 -23 -25 -31 -33 -40 0
-19 -28 -36 -43 -54 -61 -12 -13 -14 -16 -18 -22 -23 -25 -27 -31 -33 -35 -40 -42 -53 0
-61 -54 -43 -36 -28 -19 -53 -42 -35 -27 -18 -40 -33 -25 -16 -31 -23 -14 -22 -13 -12 0
-12 -13 -14 -16 -18 -20 -22 -23 -25 -27 -29 -31 -33 -35 -37 -40 -42 -44 -53 -55 -62 0
-20 -18 -16 -14 -13 -12 -62 -55 -44 -37 -29 -53 -42 -35 -27 -40 -33 -25 -31 -23 -22 0
-12 -29 -27 -25 -23 -22 -20 -18 -16 -14 -13 -62 -55 -44 -37 -53 -42 -35 -40 -33 -31 0
-22 -23 -25 -27 -29 -12 -31 -33 -35 -37 -13 -40 -42 -44 -14 -53 -55 -16 -62 -18 -20 0
-22 -13 -37 -35 -33 -31 -12 -29 -27 -25 -23 -20 -18 -16 -14 -62 -55 -44 -53 -42 -40 0
-31 -33 -35 -37 -13 -22 -40 -42 -44 -14 -23 -53 -55 -16 -25 -62 -18 -27 -20 -29 -12 0
-31 -23 -14 -44 -42 -40 -22 -13 -37 -35 -33 -12 -29 -27 -25 -20 -18 -16 -62 -55 -53 0
-40 -42 -44 -14 -23 -31 -53 -55 -16 -25 -33 -62 -18 -27 -35 -20 -29 -37 -12 -13 -22 0
-40 -33 -25 -16 -55 -53 -31 -23 -14 -44 -42 -22 -13 -37 -35 -12 -29 -27 -20 -18 -62 0
-53 -55 -16 -25 -33 -40 -62 -18 -27 -35 -42 -20 -29 -37 -44 -12 -13 -14 -22 -23 -31 0
-53 -42 -35 -27 -18 -62 -40 -33 -25 -16 -55 -31 -23 -14 -44 -22 -13 -37 -12 -29 -20 0
-62 -18 -27 -35 -42 -53 -20 -29 -37 -44 -55 -12 -13 -14 -16 -22 -23 -25 -31 -33 -40 0
-20 -29 -37 -44 -55 -62 -12 -13 -14 -16 -18 -22 -23 -25 -27 -31 -33 -35 -40 -42 -53 0
-62 -55 -44 -37 -29 -20 -53 -42 -35 -27 -18 -40 -33 -25 -16 -31 -23 -14 -22 -13 -12 0
-12 -13 -14 -16 -18 -21 -22 -23 -25 -27 -30 -31 -33 -35 -38 -40 -42 -45 -53 -56 -63 0
-21 -18 -16 -14 -13 -12 -63 -56 -45 -38 -30 -53 -42 -35 -27 -40 -33 -25 -31 -23 -22 0
-12 -30 -27 -25 -23 -22 -21 -18 -16 -14 -13 -63 -56 -45 -38 -53 -42 -35 -40 -33 -31 0
-22 -23 -25 -27 -30 -12 -31 -33 -35 -38 -13 -40 -42 -45 -14 -53 -56 -16 -63 -18 -21 0
-22 -13 -38 -35 -33 -31 -12 -30 -27 -25 -23 -21 -18 -16 -14 -63 -56 -45 -53 -42 -40 0
-31 -33 -35 -38 -13 -22 -40 -42 -45 -14 -23 -53 -56 -16 -25 -63 -18 -27 -21 -30 -12 0
-31 -23 -14 -45 -42 -40 -22 -13 -38 -35 -33 -12 -30 -27 -25 -21 -18 -16 -63 -56 -53 0
-40 -42 -45 -14 -23 -31 -53 -56 -16 -25 -33 -63 -18 -27 -35 -21 -30 -38 -12 -13 -22 0
-40 -33 -25 -16 -56 -53 -31 -23 -14 -45 -42 -22 -13 -38 -35 -12 -30 -27 -21 -18 -63 0
-53 -56 -16 -25 -33 -40 -63 -18 -27 -35 -42 -21 -30 -38 -45 -12 -13 -14 -22 -23 -31 0
-53 -42 -35 -27 -18 -63 -40 -33 -25 -16 -56 -31 -23 -14 -45 -22 -13 -38 -12 -30 -21 0
-63 -18 -27 -35 -42 -53 -21 -30 -38 -45 -56 -12 -13 -14 -16 -22 -23 -25 -31 -33 -40 0
-21 -30 -38 -45 -56 -63 -12 -13 -14 -16 -18 -22 -23 -25 -27 -31 -33 -35 -40 -42 -53 0
-63 -56 -45 -38 -30 -21 -53 -42 -35 -27 -18 -40 -33 -25 -16 -31 -23 -14 -22 -13 -12 0
-12 -13 -14 -16 -19 -20 -22 -23 -25 -28 -29 -31 -33 -36 -37 -40 -43 -44 -54 -55 -64 0
-20 -19 -16 -14 -13 -12 -64 -55 -44 -37 -29 -54 -43 -36 -28 -40 -33 -25 -31 -23 -22 0
-12 -29 -28 -25 -23 -22 -20 -19 -16 -14 -13 -64 -55 -44 -37 -54 -43 -36 -40 -33 -31 0
-22 -23 -25 -28 -29 -12 -31 -33 -36 -37 -13 -40 -43 -44 -14 -54 -55 -16 -64 -19 -20 0
-22 -13 -37 -36 -33 -31 -12 -29 -28 -25 -23 -20 -19 -16 -14 -64 -55 -44 -54 -43 -40 0
-31 -33 -36 -37 -13 -22 -40 -43 -44 -14 -23 -54 -55 -16 -25 -64 -19 -28 -20 -29 -12 0
-31 -23 -14 -44 -43 -40 -22 -13 -37 -36 -33 -12 -29 -28 -25 -20 -19 -16 -64 -55 -54 0
-40 -43 -44 -14 -23 -31 -54 -55 -16 -25 -33 -64 -19 -28 -36 -20 -29 -37 -12 -13 -22 0
-40 -33 -25 -16 -55 -54 -31 -23 -14 -44 -43 -22 -13 -37 -36 -12 -29 -28 -20 -19 -64 0
-54 -55 -16 -25 -33 -40 -64 -19 -28 -36 -43 -20 -29 -37 -44 -12 -13 -14 -22 -23 -31 0
-54 -43 -36 -28 -19 -64 -40 -33 -25 -16 -55 -31 -23 -14 -44 -22 -13 -37 -12 -29 -20 0
-64 -19 -28 -36 -43 -54 -20 -29 -37 -44 -55 -12 -13 -14 -16 -22 -23 -25 -31 -33 -40 0
-20 -29 -37 -44 -55 -64 -12 -13 -14 -16 -19 -22 -23 -25 -28 -31 -33 -36 -40 -43 -54 0
-64 -55 -44 -37 -29 -20 -54 -43 -36 -28 -19 -40 -33 -25 -16 -31 -23 -14 -22 -13 -12 0
-12 -13 -14 -16 -19 -21 -22 -23 -25 -28 -30 -31 -33 -36 -38 -40 -43 -45 -54 -56 -65 0
-21 -19 -16 -14 -13 -12 -65 -56 -45 -38 -30 -54 -43 -36 -28 -40 -33 -25 -31 -23 -22 0
-12 -30 -28 -25 -23 -22 -21 -19 -16 -14 -13 -65 -56 -45 -38 -54 -43 -36 -40 -33 -31 0
-22 -23 -25 -28 -30 -12 -31 -33 -36 -38 -13 -40 -43 -45 -14 -54 -56 -16 -65 -19 -21 0
-22 -13 -38 -36 -33 -31 -12 -30 -28 -25 -23 -21 -19 -16 -14 -65 -56 -45 -54 -43 -40 0
-31 -33 -36 -38 -13 -22 -40 -43 -45 -14 -23 -54 -56 -16 -25 -65 -19 -28 -21 -30 -12 0
-31 -23 -14 -45 -43 -40 -22 -13 -38 -36 -33 -12 -30 -28 -25 -21 -19 -16 -65 -56 -54 0
-40 -43 -45 -14 -23 -31 -54 -56 -16 -25 -33 -65 -19 -28 -36 -21 -30 -38 -12 -13 -22 0
-40 -33 -25 -16 -56 -54 -31 -23 -14 -45 -43 -22 -13 -38 -36 -12 -30 -28 -21 -19 -65 0
-54 -56 -16 -25 -33 -40 -65 -19 -28 -36 -43 -21 -30 -38 -45 -12 -13 -14 -22 -23 -31 0
-54 -43 -36 -28 -19 -65 -40 -33 -25 -16 -56 -31 -23 -14 -45 -22 -13 -38 -12 -30 -21 0
-65 -19 -28 -36 -43 -54 -21 -30 -38 -45 -56 -12 -13 -14 -16 -22 -23 -25 -31 -33 -40 0
-21 -30 -38 -45 -56 -65 -12 -13 -14 -16 -19 -22 -23 -25 -28 -31 -33 -36 -40 -43 -54 0
-65 -56 -45 -38 -30 -21 -54 -43 -36 -28 -19 -40 -33 -25 -16 -31 -23 -14 -22 -13 -12 0
-12 -13 -14 -16 -20 -21 -22 -23 -25 -29 -30 -31 -33 -37 -38 -40 -44 -45 -55 -56 -66 0
-21 -20 -16 -14 -13 -12 -66 -56 -45 -38 -30 -55 -44 -37 -29 -40 -33 -25 -31 -23 -22 0
-12 -30 -29 -25 -23 -22 -21 -20 -16 -14 -13 -66 -56 -45 -38 -55 -44 -37 -40 -33 -31 0
-22 -23 -25 -29 -30 -12 -31 -33 -37 -38 -13 -40 -44 -45 -14 -55 -56 -16 -66 -20 -21 0
-22 -13 -38 -37 -33 -31 -12 -30 -29 -25 -23 -21 -20 -16 -14 -66 -56 -45 -55 -44 -40 0
-31 -33 -37 -38 -13 -22 -40 -44 -45 -14 -23 -55 -56 -16 -25 -66 -20 -29 -21 -30 -12 0
-31 -23 -14 -45 -44 -40 -22 -13 -38 -37 -33 -12 -30 -29 -25 -21 -20 -16 -66 -56 -55 0
-40 -44 -45 -14 -23 -31 -55 -56 -16 -25 -33 -66 -20 -29 -37 -21 -30 -38 -12 -13 -22 0
-40 -33 -25 -16 -56 -55 -31 -23 -14 -45 -44 -22 -13 -38 -37 -12 -30 -29 -21 -20 -66 0
-55 -56 -16 -25 -33 -40 -66 -20 -29 -37 -44 -21 -30 -38 -45 -12 -13 -14 -22 -23 -31 0
-55 -44 -37 -29 -20 -66 -40 -33 -25 -16 -56 -31 -23 -14 -45 -22 -13 -38 -12 -30 -21 0
-66 -20 -29 -37 -44 -55 -21 -30 -38 -45 -56 -12 -13 -14 -16 -22 -23 -25 -31 -33 -40 0
-21 -30 -38 -45 -56 -66 -12 -13 -14 -16 -20 -22 -23 -25 -29 -31 -33 -37 -40 -44 -55 0
-66 -56 -45 -38 -30 -21 -55 -44 -37 -29 -20 -40 -33 -25 -16 -31 -23 -14 -22 -13 -12 0
-12 -13 -14 -17 -18 -19 -22 -23 -26 -27 -28 -31 -34 -35 -36 -41 -42 -43 -57 -58 -61 0
-19 -18 -17 -14 -13 -12 -61 -58 -43 -36 -28 -57 -42 -35 -27 -41 -34 -26 -31 -23 -22 0
-12 -28 -27 -26 -23 -22 -19 -18 -17 -14 -13 -61 -58 -43 -36 -57 -42 -35 -41 -34 -31 0
-22 -23 -26 -27 -28 -12 -31 -34 -35 -36 -13 -41 -42 -43 -14 -57 -58 -17 -61 -18 -19 0
-22 -13 -36 -35 -34 -31 -12 -28 -27 -26 -23 -19 -18 -17 -14 -61 -58 -43 -57 -42 -41 0
-31 -34 -35 -36 -13 -22 -41 -42 -43 -14 -23 -57 -58 -17 -26 -61 -18 -27 -19 -28 -12 0
-31 -23 -14 -43 -42 -41 -22 -13 -36 -35 -34 -12 -28 -27 -26 -19 -18 -17 -61 -58 -57 0
-41 -42 -43 -14 -23 -31 -57 -58 -17 -26 -34 -61 -18 -27 -35 -19 -28 -36 -12 -13 -22 0
-41 -34 -26 -17 -58 -57 -31 -23 -14 -43 -42 -22 -13 -36 -35 -12 -28 -27 -19 -18 -61 0
-57 -58 -17 -26 -34 -41 -61 -18 -27 -35 -42 -19 -28 -36 -43 -12 -13 -14 -22 -23 -31 0
-57 -42 -35 -27 -18 -61 -41 -34 -26 -17 -58 -31 -23 -14 -43 -22 -13 -36 -12 -28 -19 0
-61 -18 -27 -35 -42 -57 -19 -28 -36 -43 -58 -12 -13 -14 -17 -22 -23 -26 -31 -34 -41 0
-19 -28 -36 -43 -58 -61 -12 -13 -14 -17 -18 -22 -23 -26 -27 -31 -34 -35 -41 -42 -57 0
-61 -58 -43 -36 -28 -19 -57 -42 -35 -27 -18 -41 -34 -26 -17 -31 -23 -14 -22 -13 -12 0
-12 -13 -14 -17 -18 -20 -22 -23 -26 -27 -29 -31 -34 -35 -37 -41 -42 -44 -57 -59 -62 0
-20 -18 -17 -14 -13 -12 -62 -59 -44 -37 -29 -57 -42 -35 -27 -41 -34 -26 -31 -23 -22 0
-12 -29 -27 -26 -23 -22 -20 -18 -17 -14 -13 -62 -59 -44 -37 -57 -42 -35 -41 -34 -31 0
-22 -23 -26 -27 -29 -12 -31 -34 -35 -37 -13 -41 -42 -44 -14 -57 -59 -17 -62 -18 -20 0
-22 -13 -37 -35 -34 -31 -12 -29 -27 -26 -23 -20 -18 -17 -14 -62 -59 -44 -57 -42 -41 0
-31 -34 -35 -37 -13 -22 -41 -42 -44 -14 -23 -57 -59 -17 -26 -62 -18 -27 -20 -29 -12 0
-31 -23 -14 -44 -42 -41 -22 -13 -37 -35 -34 -12 -29 -27 -26 -20 -18 -17 -62 -59 -57 0
-41 -42 -44 -14 -23 -31 -57 -59 -17 -26 -34 -62 -18 -27 -35 -20 -29 -37 -12 -13 -22 0
-41 -34 -26 -17 -59 -57 -31 -23 -14 -44 -42 -22 -13 -37 -35 -12 -29 -27 -20 -18 -62 0
-57 -59 -17 -26 -34 -41 -62 -18 -27 -35 -42 -20 -29 -37 -44 -12 -13 -14 -22 -23 -31 0
-57 -42 -35 -27 -18 -62 -41 -34 -26 -17 -59 -31 -23 -14 -44 -22 -13 -37 -12 -29 -20 0
-62 -18 -27 -35 -42 -57 -20 -29 -37 -44 -59 -12 -13 -14 -17 -22 -23 -26 -31 -34 -41 0
-20 -29 -37 -44 -59 -62 -12 -13 -14 -17 -18 -22 -23 -26 -27 -31 -34 -35 -41 -42 -57 0
-62 -59 -44 -37 -29 -20 -57 -42 -35 -27 -18 -41 -34 -26 -17 -31 -23 -14 -22 -13 -12 0
-12 -13 -14 -17 -18 -21 -22 -23 -26 -27 -30 -31 -34 -35 -38 -41 -42 -45 -57 -60 -63 0
-21 -18 -17 -14 -13 -12 -63 -60 -45 -38 -30 -57 -42 -35 -27 -41 -34 -26 -31 -23 -22 0
-12 -30 -27 -26 -23 -22 -21 -18 -17 -14 -13 -63 -60 -45 -38 -57 -42 -35 -41 -34 -31 0
-22 -23 -26 -27 -30 -12 -31 -34 -35 -38 -13 -41 -42 -45 -14 -57 -60 -17 -63 -18 -21 0
-22 -13 -38 -35 -34 -31 -12 -30 -27 -26 -23 -21 -18 -17 -14 -63 -60 -45 -57 -42 -41 0
-31 -34 -35 -38 -13 -22 -41 -42 -45 -14 -23 -57 -60 -17 -26 -63 -18 -27 -21 -30 -12 0
-31 -23 -14 -45 -42 -41 -22 -13 -38 -35 -34 -12 -30 -27 -26 -21 -18 -17 -63 -60 -57 0
-41 -42 -45 -14 -23 -31 -57 -60 -17 -26 -34 -63 -18 -27 -35 -21 -30 -38 -12 -13 -22 0
-41 -34 -26 -17 -60 -57 -31 -23 -14 -45 -42 -22 -13 -38 -35 -12 -30 -27 -21 -18 -63 0
-57 -60 -17 -26 -34 -41 -63 -18 -27 -35 -42 -21 -30 -38 -45 -12 -13 -14 -22 -23 -31 0
-57 -42 -35 -27 -18 -63 -41 -34 -26 -17 -60 -31 -23 -14 -45 -22 -13 -38 -12 -30 -21 0
-63 -18 -27 -35 -42 -57 -21 -30 -38 -45 -60 -12 -13 -14 -17 -22 -23 -26 -31 -34 -41 0
-21 -30 -38 -45 -60 -63 -12 -13 -14 -17 -18 -22 -23 -26 -27 -31 -34 -35 -41 -42 -57 0
-63 -60 -45 -38 -30 -21 -57 -42 -35 -27 -18 -41 -34 -26 -17 -31 -23 -14 -22 -13 -12 0
-12 -13 -14 -17 -19 -20 -22 -23 -26 -28 -29 -31 -34 -36 -37 -41 -43 -44 -58 -59 -64 0
-20 -19 -17 -14 -13 -12 -64 -59 -44 -37 -29 -58 -43 -36 -28 -41 -34 -26 -31 -23 -22 0
-12 -29 -28 -26 -23 -22 -20 -19 -17 -14 -13 -64 -59 -44 -37 -58 -43 -36 -41 -34 -31 0
-22 -23 -26 -28 -29 -12 -31 -34 -36 -37 -13 -41 -43 -44 -14 -58 -59 -17 -64 -19 -20 0
-22 -13 -37 -36 -34 -31 -12 -29 -28 -26 -23 -20 -19 -17 -14 -64 -59 -44 -58 -43 -41 0
-31 -34 -36 -37 -13 -22 -41 -43 -44 -14 -23 -58 -59 -17 -26 -64 -19 -28 -20 -29 -12 0
-31 -23 -14 -44 -43 -41 -22 -13 -37 -36 -34 -12 -29 -28 -26 -20 -19 -17 -64 -59 -58 0
-41 -43 -44 -14 -23 -31 -58 -59 -17 -26 -34 -64 -19 -28 -36 -20 -29 -37 -12 -13 -22 0
-41 -34 -26 -17 -59 -58 -31 -23 -14 -44 -43 -22 -13 -37 -36 -12 -29 -28 -20 -19 -64 0
-58 -59 -17 -26 -34 -41 -64 -19 -28 -36 -43 -20 -29 -37 -44 -12 -13 -14 -22 -23 -31 0
-58 -43 -36 -28 -19 -64 -41 -34 -26 -17 -59 -31 -23 -14 -44 -22 -13 -37 -12 -29 -20 0
-64 -19 -28 -36 -43 -58 -20 -29 -37 -44 -59 -12 -13 -14 -17 -22 -23 -26 -31 -34 -41 0
-20 -29 -37 -44 -59 -64 -12 -13 -14 -17 -19 -22 -23 -26 -28 -31 -34 -36 -41 -43 -58 0
-64 -59 -44 -37 -29 -20 -58 -43 -36 -28 -19 -41 -34 -26 -17 -31 -23 -14 -22 -13 -12 0
-12 -13 -14 -17 -19 -21 -22 -23 -26 -28 -30 -31 -34 -36 -38 -41 -43 -45 -58 -60 -65 0
-21 -19 -17 -14 -13 -12 -65 -60 -45 -38 -30 -58 -43 -36 -28 -41 -34 -26 -31 -23 -22 0
-12 -30 -28 -26 -23 -22 -21 -19 -17 -14 -13 -65 -60 -45 -38 -58 -43 -36 -41 -34 -31 0
-22 -23 -26 -28 -30 -12 -31 -34 -36 -38 -13 -41 -43 -45 -14 -58 -60 -17 -65 -19 -21 0
-22 -13 -38 -36 -34 -31 -12 -30 -28 -26 -23 -21 -19 -17 -14 -65 -60 -45 -58 -43 -41 0
-31 -34 -36 -38 -13 -22 -41 -43 -45 -14 -23 -58 -60 -17 -26 -65 -19 -28 -21 -30 -12 0
-31 -23 -14 -45 -43 -41 -22 -13 -38 -36 -34 -12 -30 -28 -26 -21 -19 -17 -65 -60 -58 0
-41 -43 -45 -14 -23 -31 -58 -60 -17 -26 -34 -65 -19 -28 -36 -21 -30 -38 -12 -13 -22 0
-41 -34 -26 -17 -60 -58 -31 -23 -14 -45 -43 -22 -13 -38 -36 -12 -30 -28 -21 -19 -65 0
-58 -60 -17 -26 -34 -41 -65 -19 -28 -36 -43 -21 -30 -38 -45 -12 -13 -14 -22 -23 -31 0
-58 -43 -36 -28 -19 -65 -41 -34 -26 -17 -60 -31 -23 -14 -45 -22 -13 -38 -12 -30 -21 0
-65 -19 -28 -36 -43 -58 -21 -30 -38 -45 -60 -12 -13 -14 -17 -22 -23 -26 -31 -34 -41 0
-21 -30 -38 -45 -60 -65 -12 -13 -14 -17 -19 -22 -23 -26 -28 -31 -34 -36 -41 -43 -58 0
-65 -60 -45 -38 -30 -21 -58 -43 -36 -28 -19 -41 -34 -26 -17 -31 -23 -14 -22 -13 -12 0
-12 -13 -14 -17 -20 -21 -22 -23 -26 -29 -30 -31 -34 -37 -38 -41 -44 -45 -59 -60 -66 0
-21 -20 -17 -14 -13 -12 -66 -60 -45 -38 -30 -59 -44 -37 -29 -41 -34 -26 -31 -23 -22 0
-12 -30 -29 -26 -23 -22 -21 -20 -17 -14 -13 -66 -60 -45 -38 -59 -44 -37 -41 -34 -31 0
-22 -23 -26 -29 -30 -12 -31 -34 -37 -38 -13 -41 -44 -45 -14 -59 -60 -17 -66 -20 -21 0
-22 -13 -38 -37 -34 -31 -12 -30 -29 -26 -23 -21 -20 -17 -14 -66 -60 -45 -59 -44 -41 0
-31 -34 -37 -38 -13 -22 -41 -44 -45 -14 -23 -59 -60 -17 -26 -66 -20 -29 -21 -30 -12 0
-31 -23 -14 -45 -44 -41 -22 -13 -38 -37 -34 -12 -30 -29 -26 -21 -20 -17 -66 -60 -59 0
-41 -44 -45 -14 -23 -31 -59 -60 -17 -26 -34 -66 -20 -29 -37 -21 -30 -38 -12 -13 -22 0
-41 -34 -26 -17 -60 -59 -31 -23 -14 -45 -44 -22 -13 -38 -37 -12 -30 -29 -21 -20 -66 0
-59 -60 -17 -26 -34 -41 -66 -20 -29 -37 -44 -21 -30 -38 -45 -12 -13 -14 -22 -23 -31 0
-59 -44 -37 -29 -20 -66 -41 -34 -26 -17 -60 -31 -23 -14 -45 -22 -13 -38 -12 -30 -21 0
-66 -20 -29 -37 -44 -59 -21 -30 -38 -45 -60 -12 -13 -14 -17 -22 -23 -26 -31 -34 -41 0
-21 -30 -38 -45 -60 -66 -12 -13 -14 -17 -20 -22 -23 -26 -29 -31 -34 -37 -41 -44 -59 0
-66 -60 -45 -38 -30 -21 -59 -44 -37 -29 -20 -41 -34 -26 -17 -31 -23 -14 -22 -13 -12 0
-12 -13 -14 -18 -19 -20 -22 -23 -27 -28 -29 -31 -35 -36 -37 -42 -43 -44 -61 -62 -64 0
-20 -19 -18 -14 -13 -12 -64 -62 -44 -37 -29 -61 -43 -36 -28 -42 -35 -27 -31 -23 -22 0
-12 -29 -28 -27 -23 -22 -20 -19 -18 -14 -13 -64 -62 -44 -37 -61 -43 -36 -42 -35 -31 0
-22 -23 -27 -28 -29 -12 -31 -35 -36 -37 -13 -42 -43 -44 -14 -61 -62 -18 -64 -19 -20 0
-22 -13 -37 -36 -35 -31 -12 -29 -28 -27 -23 -20 -19 -18 -14 -64 -62 -44 -61 -43 -42 0
-31 -35 -36 -37 -13 -22 -42 -43 -44 -14 -23 -61 -62 -18 -27 -64 -19 -28 -20 -29 -12 0
-31 -23 -14 -44 -43 -42 -22 -13 -37 -36 -35 -12 -29 -28 -27 -20 -19 -18 -64 -62 -61 0
-42 -43 -44 -14 -23 -31 -61 -62 -18 -27 -35 -64 -19 -28 -36 -20 -29 -37 -12 -13 -22 0
-42 -35 -27 -18 -62 -61 -31 -23 -14 -44 -43 -22 -13 -37 -36 -12 -29 -28 -20 -19 -64 0
-61 -62 -18 -27 -35 -42 -64 -19 -28 -36 -43 -20 -29 -37 -44 -12 -13 -14 -22 -23 -31 0
-61 -43 -36 -28 -19 -64 -42 -35 -27 -18 -62 -31 -23 -14 -44 -22 -13 -37 -12 -29 -20 0
-64 -19 -28 -36 -43 -61 -20 -29 -37 -44 -62 -12 -13 -14 -18 -22 -23 -27 -31 -35 -42 0
-20 -29 -37 -44 -62 -64 -12 -13 -14 -18 -19 -22 -23 -27 -28 -31 -35 -36 -42 -43 -61 0
-64 -62 -44 -37 -29 -20 -61 -43 -36 -28 -19 -42 -35 -27 -18 -31 -23 -14 -22 -13 -12 0
-12 -13 -14 -18 -19 -21 -22 -23 -27 -28 -30 -31 -35 -36 -38 -42 -43 -45 -61 -63 -65 0
-21 -19 -18 -14 -13 -12 -65 -63 -45 -38 -30 -61 -43 -36 -28 -42 -35 -27 -31 -23 -22 0
-12 -30 -28 -27 -23 -22 -21 -19 -18 -14 -13 -65 -63 -45 -38 -61 -43 -36 -42 -35 -31 0
-22 -23 -27 -28 -30 -12 -31 -35 -36 -38 -13 -42 -43 -45 -14 -61 -63 -18 -65 -19 -21 0
-22 -13 -38 -36 -35 -31 -12 -30 -28 -27 -23 -21 -19 -18 -14 -65 -63 -45 -61 -43 -42 0
-31 -35 -36 -38 -13 -22 -42 -43 -45 -14 -23 -61 -63 -18 -27 -65 -19 -28 -21 -30 -12 0
-31 -23 -14 -45 -43 -42 -22 -13 -38 -36 -35 -12 -30 -28 -27 -21 -19 -18 -65 -63 -61 0
-42 -43 -45 -14 -23 -31 -61 -63 -18 -27 -35 -65 -19 -28 -36 -21 -30 -38 -12 -13 -22 0
-42 -35 -27 -18 -63 -61 -31 -23 -14 -45 -43 -22 -13 -38 -36 -12 -30 -28 -21 -19 -65 0
-61 -63 -18 -27 -35 -42 -65 -19 -28 -36 -43 -21 -30 -38 -45 -12 -13 -14 -22 -23 -31 0
-61 -43 -36 -28 -19 -65 -42 -35 -27 -18 -63 -31 -23 -14 -45 -22 -13 -38 -12 -30 -21 0
-65 -19 -28 -36 -43 -61 -21 -30 -38 -45 -63 -12 -13 -14 -18 -22 -23 -27 -31 -35 -42 0
-21 -30 -38 -45 -63 -65 -12 -13 -14 -18 -19 -22 -23 -27 -28 -31 -35 -36 -42 -43 -61 0
-65 -63 -45 -38 -30 -21 -61 -43 -36 -28 -19 -42 -35 -27 -18 -31 -23 -14 -22 -13 -12 0
-12 -13 -14 -18 -20 -21 -22 -23 -27 -29 -30 -31 -35 -37 -38 -42 -44 -45 -62 -63 -66 0
-21 -20 -18 -14 -13 -12 -66 -63 -45 -38 -30 -62 -44 -37 -29 -42 -35 -27 -31 -23 -22 0
-12 -30 -29 -27 -23 -22 -21 -20 -18 -14 -13 -66 -63 -45 -38 -62 -44 -37 -42 -35 -31 0
-22 -23 -27 -29 -30 -12 -31 -35 -37 -38 -13 -42 -44 -45 -14 -62 -63 -18 -66 -20 -21 0
-22 -13 -38 -37 -35 -31 -12 -30 -29 -27 -23 -21 -20 -18 -14 -66 -63 -45 -62 -44 -42 0
-31 -35 -37 -38 -13 -22 -42 -44 -45 -14 -23 -62 -63 -18 -27 -66 -20 -29 -21 -30 -12 0
-31 -23 -14 -45 -44 -42 -22 -13 -38 -37 -35 -12 -30 -29 -27 -21 -20 -18 -66 -63 -62 0
-42 -44 -45 -14 -23 -31 -62 -63 -18 -27 -35 -66 -20 -29 -37 -21 -30 -38 -12 -13 -22 0
-42 -35 -27 -18 -63 -62 -31 -23 -14 -45 -44 -22 -13 -38 -37 -12 -30 -29 -21 -20 -66 0
-62 -63 -18 -27 -35 -42 -66 -20 -29 -37 -44 -21 -30 -38 -45 -12 -13 -14 -22 -23 -31 0
-62 -44 -37 -29 -20 -66 -42 -35 -27 -18 -63 -31 -23 -14 -45 -22 -13 -38 -12 -30 -21 0
-66 -20 -29 -37 -44 -62 -21 -30 -38 -45 -63 -12 -13 -14 -18 -22 -23 -27 -31 -35 -42 0
-21 -30 -38 -45 -63 -66 -12 -13 -14 -18 -20 -22 -23 -27 -29 -31 -35 -37 -42 -44 -62 0
-66 -63 -45 -38 -30 -21 -62 -44 -37 -29 -20 -42 -35 -27 -18 -31 -23 -14 -22 -13 -12 0
-12 -13 -14 -19 -20 -21 -22 -23 -28 -29 -30 -31 -36 -37 -38 -43 -44 -45 -64 -65 -66 0
-21 -20 -19 -14 -13 -12 -66 -65 -45 -38 -30 -64 -44 -37 -29 -43 -36 -28 -31 -23 -22 0
-12 -30 -29 -28 -23 -22 -21 -20 -19 -14 -13 -66 -65 -45 -38 -64 -44 -37 -43 -36 -31 0
-22 -23 -28 -29 -30 -12 -31 -36 -37 -38 -13 -43 -44 -45 -14 -64 -65 -19 -66 -20 -21 0
-22 -13 -38 -37 -36 -31 -12 -30 -29 -28 -23 -21 -20 -19 -14 -66 -65 -45 -64 -44 -43 0
-31 -36 -37 -38 -13 -22 -43 -44 -45 -14 -23 -64 -65 -19 -28 -66 -20 -29 -21 -30 -12 0
-31 -23 -14 -45 -44 -43 -22 -13 -38 -37 -36 -12 -30 -29 -28 -21 -20 -19 -66 -65 -64 0
-43 -44 -45 -14 -23 -31 -64 -65 -19 -28 -36 -66 -20 -29 -37 -21 -30 -38 -12 -13 -22 0
-43 -36 -28 -19 -65 -64 -31 -23 -14 -45 -44 -22 -13 -38 -37 -12 -30 -29 -21 -20 -66 0
-64 -65 -19 -28 -36 -43 -66 -20 -29 -37 -44 -21 -30 -38 -45 -12 -13 -14 -22 -23 -31 0
-64 -44 -37 -29 -20 -66 -43 -36 -28 -19 -65 -31 -23 -14 -45 -22 -13 -38 -12 -30 -21 0
-66 -20 -29 -37 -44 -64 -21 -30 -38 -45 -65 -12 -13 -14 -19 -22 -23 -28 -31 -36 -43 0
-21 -30 -38 -45 -65 -66 -12 -13 -14 -19 -20 -22 -23 -28 -29 -31 -36 -37 -43 -44 -64 0
-66 -65 -45 -38 -30 -21 -64 -44 -37 -29 -20 -43 -36 -28 -19 -31 -23 -14 -22 -13 -12 0
-12 -13 -15 -16 -17 -18 -22 -24 -25 -26 -27 -32 -33 -34 -35 -46 -47 -48 -52 -53 -57 0
-18 -17 -16 -15 -13 -12 -57 -53 -48 -35 -27 -52 -47 -34 -26 -46 -33 -25 -32 -24 -22 0
-12 -27 -26 -25 -24 -22 -18 -17 -16 -15 -13 -57 -53 -48 -35 -52 -47 -34 -46 -33 -32 0
-22 -24 -25 -26 -27 -12 -32 -33 -34 -35 -13 -46 -47 -48 -15 -52 -53 -16 -57 -17 -18 0
-22 -13 -35 -34 -33 -32 -12 -27 -26 -25 -24 -18 -17 -16 -15 -57 -53 -48 -52 -47 -46 0
-32 -33 -34 -35 -13 -22 -46 -47 -48 -15 -24 -52 -53 -16 -25 -57 -17 -26 -18 -27 -12 0
-32 -24 -15 -48 -47 -46 -22 -13 -35 -34 -33 -12 -27 -26 -25 -18 -17 -16 -57 -53 -52 0
-46 -47 -48 -15 -24 -32 -52 -53 -16 -25 -33 -57 -17 -26 -34 -18 -27 -35 -12 -13 -22 0
-46 -33 -25 -16 -53 -52 -32 -24 -15 -48 -47 -22 -13 -35 -34 -12 -27 -26 -18 -17 -57 0
-52 -53 -16 -25 -33 -46 -57 -17 -26 -34 -47 -18 -27 -35 -48 -12 -13 -15 -22 -24 -32 0
-52 -47 -34 -26 -17 -57 -46 -33 -25 -16 -53 -32 -24 -15 -48 -22 -13 -35 -12 -27 -18 0
-57 -17 -26 -34 -47 -52 -18 -27 -35 -48 -53 -12 -13 -15 -16 -22 -24 -25 -32 -33 -46 0
-18 -27 -35 -48 -53 -57 -12 -13 -15 -16 -17 -22 -24 -25 -26 -32 -33 -34 -46 -47 -52 0
-57 -53 -48 -35 -27 -18 -52 -47 -34 -26 -17 -46 -33 -25 -16 -32 -24 -15 -22 -13 -12 0
-12 -13 -15 -16 -17 -19 -22 -24 -25 -26 -28 -32 -33 -34 -36 -46 -47 -49 -52 -54 -58 0
-19 -17 -16 -15 -13 -12 -58 -54 -49 -36 -28 -52 -47 -34 -26 -46 -33 -25 -32 -24 -22 0
-12 -28 -26 -25 -24 -22 -19 -17 -16 -15 -13 -58 -54 -49 -36 -52 -47 -34 -46 -33 -32 0
-22 -24 -25 -26 -28 -12 -32 -33 -34 -36 -13 -46 -47 -49 -15 -52 -54 -16 -58 -17 -19 0
-22 -13 -36 -34 -33 -32 -12 -28 -26 -25 -24 -19 -17 -16 -15 -58 -54 -49 -52 -47 -46 0
-32 -33 -34 -36 -13 -22 -46 -47 -49 -15 -24 -52 -54 -16 -25 -58 -17 -26 -19 -28 -12 0
-32 -24 -15 -49 -47 -46 -22 -13 -36 -34 -33 -12 -28 -26 -25 -19 -17 -16 -58 -54 -52 0
-46 -47 -49 -15 -24 -32 -52 -54 -16 -25 -33 -58 -17 -26 -34 -19 -28 -36 -12 -13 -22 0
-46 -33 -25 -16 -54 -52 -32 -24 -15 -49 -47 -22 -13 -36 -34 -12 -28 -26 -19 -17 -58 0
-52 -54 -16 -25 -33 -46 -58 -17 -26 -34 -47 -19 -28 -36 -49 -12 -13 -15 -22 -24 -32 0
-52 -47 -34 -26 -17 -58 -46 -33 -25 -16 -54 -32 -24 -15 -49 -22 -13 -36 -12 -28 -19 0
-58 -17 -26 -34 -47 -52 -19 -28 -36 -49 -54 -12 -13 -15 -16 -22 -24 -25 -32 -33 -46 0
-19 -28 -36 -49 -54 -58 -12 -13 -15 -16 -17 -22 -24 -25 -26 -32 -33 -34 -46 -47 -52 0
-58 -54 -49 -36 -28 -19 -52 -47 -34 -26 -17 -46 -33 -25 -16 -32 -24 -15 -22 -13 -12 0
-12 -13 -15 -16 -17 -20 -22 -24 -25 -26 -29 -32 -33 -34 -37 -46 -47 -50 -52 -55 -59 0
-20 -17 -16 -15 -13 -12 -59 -55 -50 -37 -29 -52 -47 -34 -26 -46 -33 -25 -32 -24 -22 0
-12 -29 -26 -25 -24 -22 -20 -17 -16 -15 -13 -59 -55 -50 -37 -52 -47 -34 -46 -33 -32 0
-22 -24 -25 -26 -29 -12 -32 -33 -34 -37 -13 -46 -47 -50 -15 -52 -55 -16 -59 -17 -20 0
-22 -13 -37 -34 -33 -32 -12 -29 -26 -25 -24 -20 -17 -16 -15 -59 -55 -50 -52 -47 -46 0
-32 -33 -34 -37 -13 -22 -46 -47 -50 -15 -24 -52 -55 -16 -25 -59 -17 -26 -20 -29 -12 0
-32 -24 -15 -50 -47 -46 -22 -13 -37 -34 -33 -12 -29 -26 -25 -20 -17 -16 -59 -55 -52 0
-46 -47 -50 -15 -24 -32 -52 -55 -16 -25 -33 -59 -17 -26 -34 -20 -29 -37 -12 -13 -22 0
-46 -33 -25 -16 -55 -52 -32 -24 -15 -50 -47 -22 -13 -37 -34 -12 -29 -26 -20 -17 -59 0
-52 -55 -16 -25 -33 -46 -59 -17 -26 -34 -47 -20 -29 -37 -50 -12 -13 -15 -22 -24 -32 0
-52 -47 -34 -26 -17 -59 -46 -33 -25 -16 -55 -32 -24 -15 -50 -22 -13 -37 -12 -29 -20 0
-59 -17 -26 -34 -47 -52 -20 -29 -37 -50 -55 -12 -13 -15 -16 -22 -24 -25 -32 -33 -46 0
-20 -29 -37 -50 -55 -59 -12 -13 -15 -16 -17 -22 -24 -25 -26 -32 -33 -34 -46 -47 -52 0
-59 -55 -50 -37 -29 -20 -52 -47 -34 -26 -17 -46 -33 -25 -16 -32 -24 -15 -22 -13 -12 0
-12 -13 -15 -16 -17 -21 -22 -24 -25 -26 -30 -32 -33 -34 -38 -46 -47 -51 -52 -56 -60 0
-21 -17 -16 -15 -13 -12 -60 -56 -51 -38 -30 -52 -47 -34 -26 -46 -33 -25 -32 -24 -22 0
-12 -30 -26 -25 -24 -22 -21 -17 -16 -15 -13 -60 -56 -51 -38 -52 -47 -34 -46 -33 -32 0
-22 -24 -25 -26 -30 -12 -32 -33 -34 -38 -13 -46 -47 -51 -15 -52 -56 -16 -60 -17 -21 0
-22 -13 -38 -34 -33 -32 -12 -30 -26 -25 -24 -21 -17 -16 -15 -60 -56 -51 -52 -47 -46 0
-32 -33 -34 -38 -13 -22 -46 -47 -51 -15 -24 -52 -56 -16 -25 -60 -17 -26 -21 -30 -12 0
-32 -24 -15 -51 -47 -46 -22 -13 -38 -34 -33 -12 -30 -26 -25 -21 -17 -16 -60 -56 -52 0
-46 -47 -51 -15 -24 -32 -52 -56 -16 -25 -33 -60 -17 -26 -34 -21 -30 -38 -12 -13 -22 0
-46 -33 -25 -16 -56 -52 -32 -24 -15 -51 -47 -22 -13 -38 -34 -12 -30 -26 -21 -17 -60 0
-52 -56 -16 -25 -33 -46 -60 -17 -26 -34 -47 -21 -30 -38 -51 -12 -13 -15 -22 -24 -32 0
-52 -47 -34 -26 -17 -60 -46 -33 -25 -16 -56 -32 -24 -15 -51 -22 -13 -38 -12 -30 -21 0
-60 -17 -26 -34 -47 -52 -21 -30 -38 -51 -56 -12 -13 -15 -16 -22 -24 -25 -32 -33 -46 0
-21 -30 -38 -51 -56 -60 -12 -13 -15 -16 -17 -22 -24 -25 -26 -32 -33 -34 -46 -47 -52 0
-60 -56 -51 -38 -30 -21 -52 -47 -34 -26 -17 -46 -33 -25 -16 -32 -24 -15 -22 -13 -12 0
-12 -13 -15 -16 -18 -19 -22 -24 -25 -27 -28 -32 -33 -35 -36 -46 -48 -49 -53 -54 -61 0
-19 -18 -16 -15 -13 -12 -61 -54 -49 -36 -28 -53 -48 -35 -27 -46 -33 -25 -32 -24 -22 0
-12 -28 -27 -25 -24 -22 -19 -18 -16 -15 -13 -61 -54 -49 -36 -53 -48 -35 -46 -33 -32 0
-22 -24 -25 -27 -28 -12 -32 -33 -35 -36 -13 -46 -48 -49 -15 -53 -54 -16 -61 -18 -19 0
-22 -13 -36 -35 -33 -32 -12 -28 -27 -25 -24 -19 -18 -16 -15 -61 -54 -49 -53 -48 -46 0
-32 -33 -35 -36 -13 -22 -46 -48 -49 -15 -24 -53 -54 -16 -25 -61 -18 -27 -19 -28 -12 0
-32 -24 -15 -49 -48 -46 -22 -13 -36 -35 -33 -12 -28 -27 -25 -19 -18 -16 -61 -54 -53 0
-46 -48 -49 -15 -24 -32 -53 -54 -16 -25 -33 -61 -18 -27 -35 -19 -28 -36 -12 -13 -22 0
-46 -33 -25 -16 -54 -53 -32 -24 -15 -49 -48 -22 -13 -36 -35 -12 -28 -27 -19 -18 -61 0
-53 -54 -16 -25 -33 -46 -61 -18 -27 -35 -48 -19 -28 -36 -49 -12 -13 -15 -22 -24 -32 0
-53 -48 -35 -27 -18 -61 -46 -33 -25 -16 -54 -32 -24 -15 -49 -22 -13 -36 -12 -28 -19 0
-61 -18 -27 -35 -48 -53 -19 -28 -36 -49 -54 -12 -13 -15 -16 -22 -24 -25 -32 -33 -46 0
-19 -28 -36 -49 -54 -61 -12 -13 -15 -16 -18 -22 -24 -25 -27 -32 -33 -35 -46 -48 -53 0
-61 -54 -49 -36 -28 -19 -53 -48 -35 -27 -18 -46 -33 -25 -16 -32 -24 -15 -22 -13 -12 0
-12 -13 -15 -16 -18 -20 -22 -24 -25 -27 -29 -32 -33 -35 -37 -46 -48 -50 -53 -55 -62 0
-20 -18 -16 -15 -13 -12 -62 -55 -50 -37 -29 -53 -48 -35 -27 -46 -33 -25 -32 -24 -22 0
-12 -29 -27 -25 -24 -22 -20 -18 -16 -15 -13 -62 -55 -50 -37 -53 -48 -35 -46 -33 -32 0
-22 -24 -25 -27 -29 -12 -32 -33 -35 -37 -13 -46 -48 -50 -15 -53 -55 -16 -62 -18 -20 0
-22 -13 -37 -35 -33 -32 -12 -29 -27 -25 -24 -20 -18 -16 -15 -62 -55 -50 -53 -48 -46 0
-32 -33 -35 -37 -13 -22 -46 -48 -50 -15 -24 -53 -55 -16 -25 -62 -18 -27 -20 -29 -12 0
-32 -24 -15 -50 -48 -46 -22 -13 -37 -35 -33 -12 -29 -27 -25 -20 -18 -16 -62 -55 -53 0
-46 -48 -50 -15 -24 -32 -53 -55 -16 -25 -33 -62 -18 -27 -35 -20 -29 -37 -12 -13 -22 0
-46 -33 -25 -16 -55 -53 -32 -24 -15 -50 -48 -22 -13 -37 -35 -12 -29 -27 -20 -18 -62 0
-53 -55 -16 -25 -33 -46 -62 -18 -27 -35 -48 -20 -29 -37 -50 -12 -13 -15 -22 -24 -32 0
-53 -48 -35 -27 -18 -62 -46 -33 -25 -16 -55 -32 -24 -15 -50 -22 -13 -37 -12 -29 -20 0
-62 -18 -27 -35 -48 -53 -20 -29 -37 -50 -55 -12 -13 -15 -16 -22 -24 -25 -32 -33 -46 0
-20 -29 -37 -50 -55 -62 -12 -13 -15 -16 -18 -22 -24 -25 -27 -32 -33 -35 -46 -48 -53 0
-62 -55 -50 -37 -29 -20 -53 -48 -35 -27 -18 -46 -33 -25 -16 -32 -24 -15 -22 -13 -12 0
-12 -13 -15 -16 -18 -21 -22 -24 -25 -27 -30 -32 -33 -35 -38 -46 -48 -51 -53 -56 -63 0
-21 -18 -16 -15 -13 -12 -63 -56 -51 -38 -30 -53 -48 -35 -27 -46 -33 -25 -32 -24 -22 0
-12 -30 -27 -25 -24 -22 -21 -18 -16 -15 -13 -63 -56 -51 -38 -53 -48 -35 -46 -33 -32 0
-22 -24 -25 -27 -30 -12 -32 -33 -35 -38 -13 -46 -48 -51 -15 -53 -56 -16 -63 -18 -21 0
-22 -13 -38 -35 -33 -32 -12 -30 -27 -25 -24 -21 -18 -16 -15 -63 -56 -51 -53 -48 -46 0
-32 -33 -35 -38 -13 -22 -46 -48 -51 -15 -24 -53 -56 -16 -25 -63 -18 -27 -21 -30 -12 0
-32 -24 -15 -51 -48 -46 -22 -13 -38 -35 -33 -12 -30 -27 -25 -21 -18 -16 -63 -56 -53 0
-46 -48 -51 -15 -24 -32 -53 -56 -16 -25 -33 -63 -18 -27 -35 -21 -30 -38 -12 -13 -22 0
-46 -33 -25 -16 -56 -53 -32 -24 -15 -51 -48 -22 -13 -38 -35 -12 -30 -27 -21 -18 -63 0
-53 -56 -16 -25 -33 -46 -63 -18 -27 -35 -48 -21 -30 -38 -51 -12 -13 -15 -22 -24 -32 0
-53 -48 -35 -27 -18 -63 -46 -33 -25 -16 -56 -32 -24 -15 -51 -22 -13 -38 -12 -30 -21 0
-63 -18 -27 -35 -48 -53 -21 -30 -38 -51 -56 -12 -13 -15 -16 -22 -24 -25 -32 -33 -46 0
-21 -30 -38 -51 -56 -63 -12 -13 -15 -16 -18 -22 -24 -25 -27 -32 -33 -35 -46 -48 -53 0
-63 -56 -51 -38 -30 -21 -53 -48 -35 -27 -18 -46 -33 -25 -16 -32 -24 -15 -22 -13 -12 0
-12 -13 -15 -16 -19 -20 -22 -24 -25 -28 -29 -32 -33 -36 -37 -46 -49 -50 -54 -55 -64 0
-20 -19 -16 -15 -13 -12 -64 -55 -50 -37 -29 -54 -49 -36 -28 -46 -33 -25 -32 -24 -22 0
-12 -29 -28 -25 -24 -22 -20 -19 -16 -15 -13 -64 -55 -50 -37 -54 -49 -36 -46 -33 -32 0
-22 -24 -25 -28 -29 -12 -32 -33 -36 -37 -13 -46 -49 -50 -15 -54 -55 -16 -64 -19 -20 0
-22 -13 -37 -36 -33 -32 -12 -29 -28 -25 -24 -20 -19 -16 -15 -64 -55 -50 -54 -49 -46 0
-32 -33 -36 -37 -13 -22 -46 -49 -50 -15 -24 -54 -55 -16 -25 -64 -19 -28 -20 -29 -12 0
-32 -24 -15 -50 -49 -46 -22 -13 -37 -36 -33 -12 -29 -28 -25 -20 -19 -16 -64 -55 -54 0
-46 -49 -50 -15 -24 -32 -54 -55 -16 -25 -33 -64 -19 -28 -36 -20 -29 -37 -12 -13 -22 0
-46 -33 -25 -16 -55 -54 -32 -24 -15 -50 -49 -22 -13 -37 -36 -12 -29 -28 -20 -19 -64 0
-54 -55 -16 -25 -33 -46 -64 -19 -28 -36 -49 -20 -29 -37 -50 -12 -13 -15 -22 -24 -32 0
-54 -49 -36 -28 -19 -64 -46 -33 -25 -16 -55 -32 -24 -15 -50 -22 -13 -37 -12 -29 -20 0
-64 -19 -28 -36 -49 -54 -20 -29 -37 -50 -55 -12 -13 -15 -16 -22 -24 -25 -32 -33 -46 0
-20 -29 -37 -50 -55 -64 -12 -13 -15 -16 -19 -22 -24 -25 -28 -32 -33 -36 -46 -49 -54 0
-64 -55 -50 -37 -29 -20 -54 -49 -36 -28 -19 -46 -33 -25 -16 -32 -24 -15 -22 -13 -12 0
-12 -13 -15 -16 -19 -21 -22 -24 -25 -28 -30 -32 -33 -36 -38 -46 -49 -51 -54 -56 -65 0
-21 -19 -16 -15 -13 -12 -65 -56 -51 -38 -30 -54 -49 -36 -28 -46 -33 -25 -32 -24 -22 0
-12 -30 -28 -25 -24 -22 -21 -19 -16 -15 -13 -65 -56 -51 -38 -54 -49 -36 -46 -33 -32 0
-22 -24 -25 -28 -30 -12 -32 -33 -36 -38 -13 -46 -49 -51 -15 -54 -56 -16 -65 -19 -21 0
-22 -13 -38 -36 -33 -32 -12 -30 -28 -25 -24 -21 -19 -16 -15 -65 -56 -51 -54 -49 -46 0
-32 -33 -36 -38 -13 -22 -46 -49 -51 -15 -24 -54 -56 -16 -25 -65 -19 -28 -21 -30 -12 0
-32 -24 -15 -51 -49 -46 -22 -13 -38 -36 -33 -12 -30 -28 -25 -21 -19 -16 -65 -56 -54 0
-46 -49 -51 -15 -24 -32 -54 -56 -16 -25 -33 -65 -19 -28 -36 -21 -30 -38 -12 -13 -22 0
-46 -33 -25 -16 -56 -54 -32 -24 -15 -51 -49 -22 -13 -38 -36 -12 -30 -28 -21 -19 -65 0
-54 -56 -16 -25 -33 -46 -65 -19 -28 -36 -49 -21 -30 -38 -51 -12 -13 -15 -22 -24 -32 0
-54 -49 -36 -28 -19 -65 -46 -33 -25 -16 -56 -32 -24 -15 -51 -22 -13 -38 -12 -30 -21 0
-65 -19 -28 -36 -49 -54 -21 -30 -38 -51 -56 -12 -13 -15 -16 -22 -24 -25 -32 -33 -46 0
-21 -30 -38 -51 -56 -65 -12 -13 -15 -16 -19 -22 -24 -25 -28 -32 -33 -36 -46 -49 -54 0
-65 -56 -51 -38 -30 -21 -54 -49 -36 -28 -19 -46 -33 -25 -16 -32 -24 -15 -22 -13 -12 0
-12 -13 -15 -16 -20 -21 -22 -24 -25 -29 -30 -32 -33 -37 -38 -46 -50 -51 -55 -56 -66 0
-21 -20 -16 -15 -13 -12 -66 -56 -51 -38 -30 -55 -50 -37 -29 -46 -33 -25 -32 -24 -22 0
-12 -30 -29 -25 -24 -22 -21 -20 -16 -15 -13 -66 -56 -51 -38 -55 -50 -37 -46 -33 -32 0
-22 -24 -25 -29 -30 -12 -32 -33 -37 -38 -13 -46 -50 -51 -15 -55 -56 -16 -66 -20 -21 0
-22 -13 -38 -37 -33 -32 -12 -30 -29 -25 -24 -21 -20 -16 -15 -66 -56 -51 -55 -50 -46 0
-32 -33 -37 -38 -13 -22 -46 -50 -51 -15 -24 -55 -56 -16 -25 -66 -20 -29 -21 -30 -12 0
-32 -24 -15 -51 -50 -46 -22 -13 -38 -37 -33 -12 -30 -29 -25 -21 -20 -16 -66 -56 -55 0
-46 -50 -51 -15 -24 -32 -55 -56 -16 -25 -33 -66 -20 -29 -37 -21 -30 -38 -12 -13 -22 0
-46 -33 -25 -16 -56 -55 -32 -24 -15 -51 -50 -22 -13 -38 -37 -12 -30 -29 -21 -20 -66 0
-55 -56 -16 -25 -33 -46 -66 -20 -29 -37 -50 -21 -30 -38 -51 -12 -13 -15 -22 -24 -32 0
-55 -50 -37 -29 -20 -66 -46 -33 -25 -16 -56 -32 -24 -15 -51 -22 -13 -38 -12 -30 -21 0
-66 -20 -29 -37 -50 -55 -21 -30 -38 -51 -56 -12 -13 -15 -16 -22 -24 -25 -32 -33 -46 0
-21 -30 -38 -51 -56 -66 -12 -13 -15 -16 -20 -22 -24 -25 -29 -32 -33 -37 -46 -50 -55 0
-66 -56 -51 -38 -30 -21 -55 -50 -37 -29 -20 -46 -33 -25 -16 -32 -24 -15 -22 -13 -12 0
-12 -13 -15 -17 -18 -19 -22 -24 -26 -27 -28 -32 -34 -35 -36 -47 -48 -49 -57 -58 -61 0
-19 -18 -17 -15 -13 -12 -61 -58 -49 -36 -28 -57 -48 -35 -27 -47 -34 -26 -32 -24 -22 0
-12 -28 -27 -26 -24 -22 -19 -18 -17 -15 -13 -61 -58 -49 -36 -57 -48 -35 -47 -34 -32 0
-22 -24 -26 -27 -28 -12 -32 -34 -35 -36 -13 -47 -48 -49 -15 -57 -58 -17 -61 -18 -19 0
-22 -13 -36 -35 -34 -32 -12 -28 -27 -26 -24 -19 -18 -17 -15 -61 -58 -49 -57 -48 -47 0
-32 -34 -35 -36 -13 -22 -47 -48 -49 -15 -24 -57 -58 -17 -26 -61 -18 -27 -19 -28 -12 0
-32 -24 -15 -49 -48 -47 -22 -13 -36 -35 -34 -12 -28 -27 -26 -19 -18 -17 -61 -58 -57 0
-47 -48 -49 -15 -24 -32 -57 -58 -17 -26 -34 -61 -18 -27 -35 -19 -28 -36 -12 -13 -22 0
-47 -34 -26 -17 -58 -57 -32 -24 -15 -49 -48 -22 -13 -36 -35 -12 -28 -27 -19 -18 -61 0
-57 -58 -17 -26 -34 -47 -61 -18 -27 -35 -48 -19 -28 -36 -49 -12 -13 -15 -22 -24 -32 0
-57 -48 -35 -27 -18 -61 -47 -34 -26 -17 -58 -32 -24 -15 -49 -22 -13 -36 -12 -28 -19 0
-61 -18 -27 -35 -48 -57 -19 -28 -36 -49 -58 -12 -13 -15 -17 -22 -24 -26 -32 -34 -47 0
-19 -28 -36 -49 -58 -61 -12 -13 -15 -17 -18 -22 -24 -26 -27 -32 -34 -35 -47 -48 -57 0
-61 -58 -49 -36 -28 -19 -57 -48 -35 -27 -18 -47 -34 -26 -17 -32 -24 -15 -22 -13 -12 0
-12 -13 -15 -17 -18 -20 -22 -24 -26 -27 -29 -32 -34 -35 -37 -47 -48 -50 -57 -59 -62 0
-20 -18 -17 -15 -13 -12 -62 -59 -50 -37 -29 -57 -48 -35 -27 -47 -34 -26 -32 -24 -22 0
-12 -29 -27 -26 -24 -22 -20 -18 -17 -15 -13 -62 -59 -50 -37 -57 -48 -35 -47 -34 -32 0
-22 -24 -26 -27 -29 -12 -32 -34 -35 -37 -13 -47 -48 -50 -15 -57 -59 -17 -62 -18 -20 0
-22 -13 -37 -35 -34 -32 -12 -29 -27 -26 -24 -20 -18 -17 -15 -62 -59 -50 -57 -48 -47 0
-32 -34 -35 -37 -13 -22 -47 -48 -50 -15 -24 -57 -59 -17 -26 -62 -18 -27 -20 -29 -12 0
-32 -24 -15 -50 -48 -47 -22 -13 -37 -35 -34 -12 -29 -27 -26 -20 -18 -17 -62 -59 -57 0
-47 -48 -50 -15 -24 -32 -57 -59 -17 -26 -34 -62 -18 -27 -35 -20 -29 -37 -12 -13 -22 0
-47 -34 -26 -17 -59 -57 -32 -24 -15 -50 -48 -22 -13 -37 -35 -12 -29 -27 -20 -18 -62 0
-57 -59 -17 -26 -34 -47 -62 -18 -27 -35 -48 -20 -29 -37 -50 -12 -13 -15 -22 -24 -32 0
-57 -48 -35 -27 -18 -62 -47 -34 -26 -17 -59 -32 -24 -15 -50 -22 -13 -37 -12 -29 -20 0
-62 -18 -27 -35 -48 -57 -20 -29 -37 -50 -59 -12 -13 -15 -17 -22 -24 -26 -32 -34 -47 0
-20 -29 -37 -50 -59 -62 -12 -13 -15 -17 -18 -22 -24 -26 -27 -32 -34 -35 -47 -48 -57 0
-62 -59 -50 -37 -29 -20 -57 -48 -35 -27 -18 -47 -34 -26 -17 -32 -24 -15 -22 -13 -12 0
-12 -13 -15 -17 -18 -21 -22 -24 -26 -27 -30 -32 -34 -35 -38 -47 -48 -51 -57 -60 -63 0
-21 -18 -17 -15 -13 -12 -63 -60 -51 -38 -30 -57 -48 -35 -27 -47 -34 -26 -32 -24 -22 0
-12 -30 -27 -26 -24 -22 -21 -18 -17 -15 -13 -63 -60 -51 -38 -57 -48 -35 -47 -34 -32 0
-22 -24 -26 -27 -30 -12 -32 -34 -35 -38 -13 -47 -48 -51 -15 -57 -60 -17 -63 -18 -21 0
-22 -13 -38 -35 -34 -32 -12 -30 -27 -26 -24 -21 -18 -17 -15 -63 -60 -51 -57 -48 -47 0
-32 -34 -35 -38 -13 -22 -47 -48 -51 -15 -24 -57 -60 -17 -26 -63 -18 -27 -21 -30 -12 0
-32 -24 -15 -51 -48 -47 -22 -13 -38 -35 -34 -12 -30 -27 -26 -21 -18 -17 -63 -60 -57 0
-47 -48 -51 -15 -24 -32 -57 -60 -17 -26 -34 -63 -18 -27 -35 -21 -30 -38 -12 -13 -22 0
-47 -34 -26 -17 -60 -57 -32 -24 -15 -51 -48 -22 -13 -38 -35 -12 -30 -27 -21 -18 -63 0
-57 -60 -17 -26 -34 -47 -63 -18 -27 -35 -48 -21 -30 -38 -51 -12 -13 -15 -22 -24 -32 0
-57 -48 -35 -27 -18 -63 -47 -34 -26 -17 -60 -32 -24 -15 -51 -22 -13 -38 -12 -30 -21 0
-63 -18 -27 -35 -48 -57 -21 -30 -38 -51 -60 -12 -13 -15 -17 -22 -24 -26 -32 -34 -47 0
-21 -30 -38 -51 -60 -63 -12 -13 -15 -17 -18 -22 -24 -26 -27 -32 -34 -35 -47 -48 -57 0
-63 -60 -51 -38 -30 -21 -57 -48 -35 -27 -18 -47 -34 -26 -17 -32 -24 -15 -22 -13 -12 0
-12 -13 -15 -17 -19 -20 -22 -24 -26 -28 -29 -32 -34 -36 -37 -47 -49 -50 -58 -59 -64 0
-20 -19 -17 -15 -13 -12 -64 -59 -50 -37 -29 -58 -49 -36 -28 -47 -34 -26 -32 -24 -22 0
-12 -29 -28 -26 -24 -22 -20 -19 -17 -15 -13 -64 -59 -50 -37 -58 -49 -36 -47 -34 -32 0
-22 -24 -26 -28 -29 -12 -32 -34 -36 -37 -13 -47 -49 -50 -15 -58 -59 -17 -64 -19 -20 0
-22 -13 -37 -36 -34 -32 -12 -29 -28 -26 -24 -20 -19 -17 -15 -64 -59 -50 -58 -49 -47 0
-32 -34 -36 -37 -13 -22 -47 -49 -50 -15 -24 -58 -59 -17 -26 -64 -19 -28 -20 -29 -12 0
-32 -24 -15 -50 -49 -47 -22 -13 -37 -36 -34 -12 -29 -28 -26 -20 -19 -17 -64 -59 -58 0
-47 -49 -50 -15 -24 -32 -58 -59 -17 -26 -34 -64 -19 -28 -36 -20 -29 -37 -12 -13 -22 0
-47 -34 -26 -17 -59 -58 -32 -24 -15 -50 -49 -22 -13 -37 -36 -12 -29 -28 -20 -19 -64 0
-58 -59 -17 -26 -34 -47 -64 -19 -28 -36 -49 -20 -29 -37 -50 -12 -13 -15 -22 -24 -32 0
-58 -49 -36 -28 -19 -64 -47 -34 -26 -17 -59 -32 -24 -15 -50 -22 -13 -37 -12 -29 -20 0
-64 -19 -28 -36 -49 -58 -20 -29 -37 -50 -59 -12 -13 -15 -17 -22 -24 -26 -32 -34 -47 0
-20 -29 -37 -50 -59 -64 -12 -13 -15 -17 -19 -22 -24 -26 -28 -32 -34 -36 -47 -49 -58 0
-64 -59 -50 -37 -29 -20 -58 -49 -36 -28 -19 -47 -34 -26 -17 -32 -24 -15 -22 -13 -12 0
-12 -13 -15 -17 -19 -21 -22 -24 -26 -28 -30 -32 -34 -36 -38 -47 -49 -51 -58 -60 -65 0
-21 -19 -17 -15 -13 -12 -65 -60 -51 -38 -30 -58 -49 -36 -28 -47 -34 -26 -32 -24 -22 0
-12 -30 -28 -26 -24 -22 -21 -19 -17 -15 -13 -65 -60 -51 -38 -58 -49 -36 -47 -34 -32 0
-22 -24 -26 -28 -30 -12 -32 -34 -36 -38 -13 -47 -49 -51 -15 -58 -60 -17 -65 -19 -21 0
-22 -13 -38 -36 -34 -32 -12 -30 -28 -26 -24 -21 -19 -17 -15 -65 -60 -51 -58 -49 -47 0
-32 -34 -36 -38 -13 -22 -47 -49 -51 -15 -24 -58 -60 -17 -26 -65 -19 -28 -21 -30 -12 0
-32 -24 -15 -51 -49 -47 -22 -13 -38 -36 -34 -12 -30 -28 -26 -21 -19 -17 -65 -60 -58 0
-47 -49 -51 -15 -24 -32 -58 -60 -17 -26 -34 -65 -19 -28 -36 -21 -30 -38 -12 -13 -22 0
-47 -34 -26 -17 -60 -58 -32 -24 -15 -51 -49 -22 -13 -38 -36 -12 -30 -28 -21 -19 -65 0
-58 -60 -17 -26 -34 -47 -65 -19 -28 -36 -49 -21 -30 -38 -51 -12 -13 -15 -22 -24 -32 0
-58 -49 -36 -28 -19 -65 -47 -34 -26 -17 -60 -32 -24 -15 -51 -22 -13 -38 -12 -30 -21 0
-65 -19 -28 -36 -49 -58 -21 -30 -38 -51 -60 -12 -13 -15 -17 -22 -24 -26 -32 -34 -47 0
-21 -30 -38 -51 -60 -65 -12 -13 -15 -17 -19 -22 -24 -26 -28 -32 -34 -36 -47 -49 -58 0
-65 -60 -51 -38 -30 -21 -58 -49 -36 -28 -19 -47 -34 -26 -17 -32 -24 -15 -22 -13 -12 0
-12 -13 -15 -17 -20 -21 -22 -24 -26 -29 -30 -32 -34 -37 -38 -47 -50 -51 -59 -60 -66 0
-21 -20 -17 -15 -13 -12 -66 -60 -51 -38 -30 -59 -50 -37 -29 -47 -34 -26 -32 -24 -22 0
-12 -30 -29 -26 -24 -22 -21 -20 -17 -15 -13 -66 -60 -51 -38 -59 -50 -37 -47 -34 -32 0
-22 -24 -26 -29 -30 -12 -32 -34 -37 -38 -13 -47 -50 -51 -15 -59 -60 -17 -66 -20 -21 0
-22 -13 -38 -37 -34 -32 -12 -30 -29 -26 -24 -21 -20 -17 -15 -66 -60 -51 -59 -50 -47 0
-32 -34 -37 -38 -13 -22 -47 -50 -51 -15 -24 -59 -60 -17 -26 -66 -20 -29 -21 -30 -12 0
-32 -24 -15 -51 -50 -47 -22 -13 -38 -37 -34 -12 -30 -29 -26 -21 -20 -17 -66 -60 -59 0
-47 -50 -51 -15 -24 -32 -59 -60 -17 -26 -34 -66 -20 -29 -37 -21 -30 -38 -12 -13 -22 0
-47 -34 -26 -17 -60 -59 -32 -24 -15 -51 -50 -22 -13 -38 -37 -12 -30 -29 -21 -20 -66 0
-59 -60 -17 -26 -34 -47 -66 -20 -29 -37 -50 -21 -30 -38 -51 -12 -13 -15 -22 -24 -32 0
-59 -50 -37 -29 -20 -66 -47 -34 -26 -17 -60 -32 -24 -15 -51 -22 -13 -38 -12 -30 -21 0
-66 -20 -29 -37 -50 -59 -21 -30 -38 -51 -60 -12 -13 -15 -17 -22 -24 -26 -32 -34 -47 0
-21 -30 -38 -51 -60 -66 -12 -13 -15 -17 -20 -22 -24 -26 -29 -32 -34 -37 -47 -50 -59 0
-66 -60 -51 -38 -30 -21 -59 -50 -37 -29 -20 -47 -34 -26 -17 -32 -24 -15 -22 -13 -12 0
-12 -13 -15 -18 -19 -20 -22 -24 -27 -28 -29 -32 -35 -36 -37 -48 -49 -50 -61 -62 -64 0
-20 -19 -18 -15 -13 -12 -64 -62 -50 -37 -29 -61 -49 -36 -28 -48 -35 -27 -32 -24 -22 0
-12 -29 -28 -27 -24 -22 -20 -19 -18 -15 -13 -64 -62 -50 -37 -61 -49 -36 -48 -35 -32 0
-22 -24 -27 -28 -29 -12 -32 -35 -36 -37 -13 -48 -49 -50 -15 -61 -62 -18 -64 -19 -20 0
-22 -13 -37 -36 -35 -32 -12 -29 -28 -27 -24 -20 -19 -18 -15 -64 -62 -50 -61 -49 -48 0
-32 -35 -36 -37 -13 -22 -48 -49 -50 -15 -24 -61 -62 -18 -27 -64 -19 -28 -20 -29 -12 0
-32 -24 -15 -50 -49 -48 -22 -13 -37 -36 -35 -12 -29 -28 -27 -20 -19 -18 -64 -62 -61 0
-48 -49 -50 -15 -24 -32 -61 -62 -18 -27 -35 -64 -19 -28 -36 -20 -29 -37 -12 -13 -22 0
-48 -35 -27 -18 -62 -61 -32 -24 -15 -50 -49 -22 -13 -37 -36 -12 -29 -28 -20 -19 -64 0
-61 -62 -18 -27 -35 -48 -64 -19 -28 -36 -49 -20 -29 -37 -50 -12 -13 -15 -22 -24 -32 0
-61 -49 -36 -28 -19 -64 -48 -35 -27 -18 -62 -32 -24 -15 -50 -22 -13 -37 -12 -29 -20 0
-64 -19 -28 -36 -49 -61 -20 -29 -37 -50 -62 -12 -13 -15 -18 -22 -24 -27 -32 -35 -48 0
-20 -29 -37 -50 -62 -64 -12 -13 -15 -18 -19 -22 -24 -27 -28 -32 -35 -36 -48 -49 -61 0
-64 -62 -50 -37 -29 -20 -61 -49 -36 -28 -19 -48 -35 -27 -18 -32 -24 -15 -22 -13 -12 0
-12 -13 -15 -18 -19 -21 -22 -24 -27 -28 -30 -32 -35 -36 -38 -48 -49 -51 -61 -63 -65 0
-21 -19 -18 -15 -13 -12 -65 -63 -51 -38 -30 -61 -49 -36 -28 -48 -35 -27 -32 -24 -22 0
-12 -30 -28 -27 -24 -22 -21 -19 -18 -15 -13 -65 -63 -51 -38 -61 -49 -36 -48 -35 -32 0
-22 -24 -27 -28 -30 -12 -32 -35 -36 -38 -13 -48 -49 -51 -15 -61 -63 -18 -65 -19 -21 0
-22 -13 -38 -36 -35 -32 -12 -30 -28 -27 -24 -21 -19 -18 -15 -65 -63 -51 -61 -49 -48 0
-32 -35 -36 -38 -13 -22 -48 -49 -51 -15 -24 -61 -63 -18 -27 -65 -19 -28 -21 -30 -12 0
-32 -24 -15 -51 -49 -48 -22 -13 -38 -36 -35 -12 -30 -28 -27 -21 -19 -18 -65 -63 -61 0
-48 -49 -51 -15 -24 -32 -61 -63 -18 -27 -35 -65 -19 -28 -36 -21 -30 -38 -12 -13 -22 0
-48 -35 -27 -18 -63 -61 -32 -24 -15 -51 -49 -22 -13 -38 -36 -12 -30 -28 -21 -19 -65 0
-61 -63 -18 -27 -35 -48 -65 -19 -28 -36 -49 -21 -30 -38 -51 -12 -13 -15 -22 -24 -32 0
-61 -49 -36 -28 -19 -65 -48 -35 -27 -18 -63 -32 -24 -15 -51 -22 -13 -38 -12 -30 -21 0
-65 -19 -28 -36 -49 -61 -21 -30 -38 -51 -63 -12 -13 -15 -18 -22 -24 -27 -32 -35 -48 0
-21 -30 -38 -51 -63 -65 -12 -13 -15 -18 -19 -22 -24 -27 -28 -32 -35 -36 -48 -49 -61 0
-65 -63 -51 -38 -30 -21 -61 -49 -36 -28 -19 -48 -35 -27 -18 -32 -24 -15 -22 -13 -12 0
-12 -13 -15 -18 -20 -21 -22 -24 -27 -29 -30 -32 -35 -37 -38 -48 -50 -51 -62 -63 -66 0
-21 -20 -18 -15 -13 -12 -66 -63 -51 -38 -30 -62 -50 -37 -29 -48 -35 -27 -32 -24 -22 0
-12 -30 -29 -27 -24 -22 -21 -20 -18 -15 -13 -66 -63 -51 -38 -62 -50 -37 -48 -35 -32 0
-22 -24 -27 -29 -30 -12 -32 -35 -37 -38 -13 -48 -50 -51 -15 -62 -63 -18 -66 -20 -21 0
-22 -13 -38 -37 -35 -32 -12 -30 -29 -27 -24 -21 -20 -18 -15 -66 -63 -51 -62 -50 -48 0
-32 -35 -37 -38 -13 -22 -48 -50 -51 -15 -24 -62 -63 -18 -27 -66 -20 -29 -21 -30 -12 0
-32 -24 -15 -51 -50 -48 -22 -13 -38 -37 -35 -12 -30 -29 -27 -21 -20 -18 -66 -63 -62 0
-48 -50 -51 -15 -24 -32 -62 -63 -18 -27 -35 -66 -20 -29 -37 -21 -30 -38 -12 -13 -22 0
-48 -35 -27 -18 -63 -62 -32 -24 -15 -51 -50 -22 -13 -38 -37 -12 -30 -29 -21 -20 -66 0
-62 -63 -18 -27 -35 -48 -66 -20 -29 -37 -50 -21 -30 -38 -51 -12 -13 -15 -22 -24 -32 0
-62 -50 -37 -29 -20 -66 -48 -35 -27 -18 -63 -32 -24 -15 -51 -22 -13 -38 -12 -30 -21 0
-66 -20 -29 -37 -50 -62 -21 -30 -38 -51 -63 -12 -13 -15 -18 -22 -24 -27 -32 -35 -48 0
-21 -30 -38 -51 -63 -66 -12 -13 -15 -18 -20 -22 -24 -27 -29 -32 -35 -37 -48 -50 -62 0
-66 -63 -51 -38 -30 -21 -62 -50 -37 -29 -20 -48 -35 -27 -18 -32 -24 -15 -22 -13 -12 0
-12 -13 -15 -19 -20 -21 -22 -24 -28 -29 -30 -32 -36 -37 -38 -49 -50 -51 -64 -65 -66 0
-21 -20 -19 -15 -13 -12 -66 -65 -51 -38 -30 -64 -50 -37 -29 -49 -36 -28 -32 -24 -22 0
-12 -30 -29 -28 -24 -22 -21 -20 -19 -15 -13 -66 -65 -51 -38 -64 -50 -37 -49 -36 -32 0
-22 -24 -28 -29 -30 -12 -32 -36 -37 -38 -13 -49 -50 -51 -15 -64 -65 -19 -66 -20 -21 0
-22 -13 -38 -37 -36 -32 -12 -30 -29 -28 -24 -21 -20 -19 -15 -66 -65 -51 -64 -50 -49 0
-32 -36 -37 -38 -13 -22 -49 -50 -51 -15 -24 -64 -65 -19 -28 -66 -20 -29 -21 -30 -12 0
-32 -24 -15 -51 -50 -49 -22 -13 -38 -37 -36 -12 -30 -29 -28 -21 -20 -19 -66 -65 -64 0
-49 -50 -51 -15 -24 -32 -64 -65 -19 -28 -36 -66 -20 -29 -37 -21 -30 -38 -12 -13 -22 0
-49 -36 -28 -19 -65 -64 -32 -24 -15 -51 -50 -22 -13 -38 -37 -12 -30 -29 -21 -20 -66 0
-64 -65 -19 -28 -36 -49 -66 -20 -29 -37 -50 -21 -30 -38 -51 -12 -13 -15 -22 -24 -32 0
-64 -50 -37 -29 -20 -66 -49 -36 -28 -19 -65 -32 -24 -15 -51 -22 -13 -38 -12 -30 -21 0
-66 -20 -29 -37 -50 -64 -21 -30 -38 -51 -65 -12 -13 -15 -19 -22 -24 -28 -32 -36 -49 0
-21 -30 -38 -51 -65 -66 -12 -13 -15 -19 -20 -22 -24 -28 -29 -32 -36 -37 -49 -50 -64 0
-66 -65 -51 -38 -30 -21 -64 -50 -37 -29 -20 -49 -36 -28 -19 -32 -24 -15 -22 -13 -12 0
-12 -13 -16 -17 -18 -19 -22 -25 -26 -27 -28 -33 -34 -35 -36 -52 -53 -54 -57 -58 -61 0
-19 -18 -17 -16 -13 -12 -61 -58 -54 -36 -28 -57 -53 -35 -27 -52 -34 -26 -33 -25 -22 0
-12 -28 -27 -26 -25 -22 -19 -18 -17 -16 -13 -61 -58 -54 -36 -57 -53 -35 -52 -34 -33 0
-22 -25 -26 -27 -28 -12 -33 -34 -35 -36 -13 -52 -53 -54 -16 -57 -58 -17 -61 -18 -19 0
-22 -13 -36 -35 -34 -33 -12 -28 -27 -26 -25 -19 -18 -17 -16 -61 -58 -54 -57 -53 -52 0
-33 -34 -35 -36 -13 -22 -52 -53 -54 -16 -25 -57 -58 -17 -26 -61 -18 -27 -19 -28 -12 0
-33 -25 -16 -54 -53 -52 -22 -13 -36 -35 -34 -12 -28 -27 -26 -19 -18 -17 -61 -58 -57 0
-52 -53 -54 -16 -25 -33 -57 -58 -17 -26 -34 -61 -18 -27 -35 -19 -28 -36 -12 -13 -22 0
-52 -34 -26 -17 -58 -57 -33 -25 -16 -54 -53 -22 -13 -36 -35 -12 -28 -27 -19 -18 -61 0
-57 -58 -17 -26 -34 -52 -61 -18 -27 -35 -53 -19 -28 -36 -54 -12 -13 -16 -22 -25 -33 0
-57 -53 -35 -27 -18 -61 -52 -34 -26 -17 -58 -33 -25 -16 -54 -22 -13 -36 -12 -28 -19 0
-61 -18 -27 -35 -53 -57 -19 -28 -36 -54 -58 -12 -13 -16 -17 -22 -25 -26 -33 -34 -52 0
-19 -28 -36 -54 -58 -61 -12 -13 -16 -17 -18 -22 -25 -26 -27 -33 -34 -35 -52 -53 -57 0
-61 -58 -54 -36 -28 -19 -57 -53 -35 -27 -18 -52 -34 -26 -17 -33 -25 -16 -22 -13 -12 0
-12 -13 -16 -17 -18 -20 -22 -25 -26 -27 -29 -33 -34 -35 -37 -52 -53 -55 -57 -59 -62 0
-20 -18 -17 -16 -13 -12 -62 -59 -55 -37 -29 -57 -53 -35 -27 -52 -34 -26 -33 -25 -22 0
-12 -29 -27 -26 -25 -22 -20 -18 -17 -16 -13 -62 -59 -55 -37 -57 -53 -35 -52 -34 -33 0
-22 -25 -26 -27 -29 -12 -33 -34 -35 -37 -13 -52 -53 -55 -16 -57 -59 -17 -62 -18 -20 0
-22 -13 -37 -35 -34 -33 -12 -29 -27 -26 -25 -20 -18 -17 -16 -62 -59 -55 -57 -53 -52 0
-33 -34 -35 -37 -13 -22 -52 -53 -55 -16 -25 -57 -59 -17 -26 -62 -18 -27 -20 -29 -12 0
-33 -25 -16 -55 -53 -52 -22 -13 -37 -35 -34 -12 -29 -27 -26 -20 -18 -17 -62 -59 -57 0
-52 -53 -55 -16 -25 -33 -57 -59 -17 -26 -34 -62 -18 -27 -35 -20 -29 -37 -12 -13 -22 0
-52 -34 -26 -17 -59 -57 -33 -25 -16 -55 -53 -22 -13 -37 -35 -12 -29 -27 -20 -18 -62 0
-57 -59 -17 -26 -34 -52 -62 -18 -27 -35 -53 -20 -29 -37 -55 -12 -13 -16 -22 -25 -33 0
-57 -53 -35 -27 -18 -62 -52 -34 -26 -17 -59 -33 -25 -16 -55 -22 -13 -37 -12 -29 -20 0
-62 -18 -27 -35 -53 -57 -20 -29 -37 -55 -59 -12 -13 -16 -17 -22 -25 -26 -33 -34 -52 0
-20 -29 -37 -55 -59 -62 -12 -13 -16 -17 -18 -22 -25 -26 -27 -33 -34 -35 -52 -53 -57 0
-62 -59 -55 -37 -29 -20 -57 -53 -35 -27 -18 -52 -34 -26 -17 -33 -25 -16 -22 -13 -12 0
-12 -13 -16 -17 -18 -21 -22 -25 -26 -27 -30 -33 -34 -35 -38 -52 -53 -56 -57 -60 -63 0
-21 -18 -17 -16 -13 -12 -63 -60 -56 -38 -30 -57 -53 -35 -27 -52 -34 -26 -33 -25 -22 0
-12 -30 -27 -26 -25 -22 -21 -18 -17 -16 -13 -63 -60 -56 -38 -57 -53 -35 -52 -34 -33 0
-22 -25 -26 -27 -30 -12 -33 -34 -35 -38 -13 -52 -53 -56 -16 -57 -60 -17 -63 -18 -21 0
-22 -13 -38 -35 -34 -33 -12 -30 -27 -26 -25 -21 -18 -17 -16 -63 -60 -56 -57 -53 -52 0
-33 -34 -35 -38 -13 -22 -52 -53 -56 -16 -25 -57 -60 -17 -26 -63 -18 -27 -21 -30 -12 0
-33 -25 -16 -56 -53 -52 -22 -13 -38 -35 -34 -12 -30 -27 -26 -21 -18 -17 -63 -60 -57 0
-52 -53 -56 -16 -25 -33 -57 -60 -17 -26 -34 -63 -18 -27 -35 -21 -30 -38 -12 -13 -22 0
-52 -34 -26 -17 -60 -57 -33 -25 -16 -56 -53 -22 -13 -38 -35 -12 -30 -27 -21 -18 -63 0
-57 -60 -17 -26 -34 -52 -63 -18 -27 -35 -53 -21 -30 -38 -56 -12 -13 -16 -22 -25 -33 0
-57 -53 -35 -27 -18 -63 -52 -34 -26 -17 -60 -33 -25 -16 -56 -22 -13 -38 -12 -30 -21 0
-63 -18 -27 -35 -53 -57 -21 -30 -38 -56 -60 -12 -13 -16 -17 -22 -25 -26 -33 -34 -52 0
-21 -30 -38 -56 -60 -63 -12 -13 -16 -17 -18 -22 -25 -26 -27 -33 -34 -35 -52 -53 -57 0
-63 -60 -56 -38 -30 -21 -57 -53 -35 -27 -18 -52 -34 -26 -17 -33 -25 -16 -22 -13 -12 0
-12 -13 -16 -17 -19 -20 -22 -25 -26 -28 -29 -33 -34 -36 -37 -52 -54 -55 -58 -59 -64 0
-20 -19 -17 -16 -13 -12 -64 -59 -55 -37 -29 -58 -54 -36 -28 -52 -34 -26 -33 -25 -22 0
-12 -29 -28 -26 -25 -22 -20 -19 -17 -16 -13 -64 -59 -55 -37 -58 -54 -36 -52 -34 -33 0
-22 -25 -26 -28 -29 -12 -33 -34 -36 -37 -13 -52 -54 -55 -16 -58 -59 -17 -64 -19 -20 0
-22 -13 -37 -36 -34 -33 -12 -29 -28 -26 -25 -20 -19 -17 -16 -64 -59 -55 -58 -54 -52 0
-33 -34 -36 -37 -13 -22 -52 -54 -55 -16 -25 -58 -59 -17 -26 -64 -19 -28 -20 -29 -12 0
-33 -25 -16 -55 -54 -52 -22 -13 -37 -36 -34 -12 -29 -28 -26 -20 -19 -17 -64 -59 -58 0
-52 -54 -55 -16 -25 -33 -58 -59 -17 -26 -34 -64 -19 -28 -36 -20 -29 -37 -12 -13 -22 0
-52 -34 -26 -17 -59 -58 -33 -25 -16 -55 -54 -22 -13 -37 -36 -12 -29 -28 -20 -19 -64 0
-58 -59 -17 -26 -34 -52 -64 -19 -28 -36 -54 -20 -29 -37 -55 -12 -13 -16 -22 -25 -33 0
-58 -54 -36 -28 -19 -64 -52 -34 -26 -17 -59 -33 -25 -16 -55 -22 -13 -37 -12 -29 -20 0
-64 -19 -28 -36 -54 -58 -20 -29 -37 -55 -59 -12 -13 -16 -17 -22 -25 -26 -33 -34 -52 0
-20 -29 -37 -55 -59 -64 -12 -13 -16 -17 -19 -22 -25 -26 -28 -33 -34 -36 -52 -54 -58 0
-64 -59 -55 -37 -29 -20 -58 -54 -36 -28 -19 -52 -34 -26 -17 -33 -25 -16 -22 -13 -12 0
-12 -13 -16 -17 -19 -21 -22 -25 -26 -28 -30 -33 -34 -36 -38 -52 -54 -56 -58 -60 -65 0
-21 -19 -17 -16 -13 -12 -65 -60 -56 -38 -30 -58 -54 -36 -28 -52 -34 -26 -33 -25 -22 0
-12 -30 -28 -26 -25 -22 -21 -19 -17 -16 -13 -65 -60 -56 -38 -58 -54 -36 -52 -34 -33 0
-22 -25 -26 -28 -30 -12 -33 -34 -36 -38 -13 -52 -54 -56 -16 -58 -60 -17 -65 -19 -21 0
-22 -13 -38 -36 -34 -33 -12 -30 -28 -26 -25 -21 -19 -17 -16 -65 -60 -56 -58 -54 -52 0
-33 -34 -36 -38 -13 -22 -52 -54 -56 -16 -25 -58 -60 -17 -26 -65 -19 -28 -21 -30 -12 0
-33 -25 -16 -56 -54 -52 -22 -13 -38 -36 -34 -12 -30 -28 -26 -21 -19 -17 -65 -60 -58 0
-52 -54 -56 -16 -25 -33 -58 -60 -17 -26 -34 -65 -19 -28 -36 -21 -30 -38 -12 -13 -22 0
-52 -34 -26 -17 -60 -58 -33 -25 -16 -56 -54 -22 -13 -38 -36 -12 -30 -28 -21 -19 -65 0
-58 -60 -17 -26 -34 -52 -65 -19 -28 -36 -54 -21 -30 -38 -56 -12 -13 -16 -22 -25 -33 0
-58 -54 -36 -28 -19 -65 -52 -34 -26 -17 -60 -33 -25 -16 -56 -22 -13 -38 -12 -30 -21 0
-65 -19 -28 -36 -54 -58 -21 -30 -38 -56 -60 -12 -13 -16 -17 -22 -25 -26 -33 -34 -52 0
-21 -30 -38 -56 -60 -65 -12 -13 -16 -17 -19 -22 -25 -26 -28 -33 -34 -36 -52 -54 -58 0
-65 -60 -56 -38 -30 -21 -58 -54 -36 -28 -19 -52 -34 -26 -17 -33 -25 -16 -22 -13 -12 0
-12 -13 -16 -17 -20 -21 -22 -25 -26 -29 -30 -33 -34 -37 -38 -52 -55 -56 -59 -60 -66 0
-21 -20 -17 -16 -13 -12 -66 -60 -56 -38 -30 -59 -55 -37 -29 -52 -34 -26 -33 -25 -22 0
-12 -30 -29 -26 -25 -22 -21 -20 -17 -16 -13 -66 -60 -56 -38 -59 -55 -37 -52 -34 -33 0
-22 -25 -26 -29 -30 -12 -33 -34 -37 -38 -13 -52 -55 -56 -16 -59 -60 -17 -66 -20 -21 0
-22 -13 -38 -37 -34 -33 -12 -30 -29 -26 -25 -21 -20 -17 -16 -66 -60 -56 -59 -55 -52 0
-33 -34 -37 -38 -13 -22 -52 -55 -56 -16 -25 -59 -60 -17 -26 -66 -20 -29 -21 -30 -12 0
-33 -25 -16 -56 -55 -52 -22 -13 -38 -37 -34 -12 -30 -29 -26 -21 -20 -17 -66 -60 -59 0
-52 -55 -56 -16 -25 -33 -59 -60 -17 -26 -34 -66 -20 -29 -37 -21 -30 -38 -12 -13 -22 0
-52 -34 -26 -17 -60 -59 -33 -25 -16 -56 -55 -22 -13 -38 -37 -12 -30 -29 -21 -20 -66 0
-59 -60 -17 -26 -34 -52 -66 -20 -29 -37 -55 -21 -30 -38 -56 -12 -13 -16 -22 -25 -33 0
-59 -55 -37 -29 -20 -66 -52 -34 -26 -17 -60 -33 -25 -16 -56 -22 -13 -38 -12 -30 -21 0
-66 -20 -29 -37 -55 -59 -21 -30 -38 -56 -60 -12 -13 -16 -17 -22 -25 -26 -33 -34 -52 0
-21 -30 -38 -56 -60 -66 -12 -13 -16 -17 -20 -22 -25 -26 -29 -33 -34 -37 -52 -55 -59 0
-66 -60 -56 -38 -30 -21 -59 -55 -37 -29 -20 -52 -34 -26 -17 -33 -25 -16 -22 -13 -12 0
-12 -13 -16 -18 -19 -20 -22 -25 -27 -28 -29 -33 -35 -36 -37 -53 -54 -55 -61 -62 -64 0
-20 -19 -18 -16 -13 -12 -64 -62 -55 -37 -29 -61 -54 -36 -28 -53 -35 -27 -33 -25 -22 0
-12 -29 -28 -27 -25 -22 -20 -19 -18 -16 -13 -64 -62 -55 -37 -61 -54 -36 -53 -35 -33 0
-22 -25 -27 -28 -29 -12 -33 -35 -36 -37 -13 -53 -54 -55 -16 -61 -62 -18 -64 -19 -20 0
-22 -13 -37 -36 -35 -33 -12 -29 -28 -27 -25 -20 -19 -18 -16 -64 -62 -55 -61 -54 -53 0
-33 -35 -36 -37 -13 -22 -53 -54 -55 -16 -25 -61 -62 -18 -27 -64 -19 -28 -20 -29 -12 0
-33 -25 -16 -55 -54 -53 -22 -13 -37 -36 -35 -12 -29 -28 -27 -20 -19 -18 -64 -62 -61 0
-53 -54 -55 -16 -25 -33 -61 -62 -18 -27 -35 -64 -19 -28 -36 -20 -29 -37 -12 -13 -22 0
-53 -35 -27 -18 -62 -61 -33 -25 -16 -55 -54 -22 -13 -37 -36 -12 -29 -28 -20 -19 -64 0
-61 -62 -18 -27 -35 -53 -64 -19 -28 -36 -54 -20 -29 -37 -55 -12 -13 -16 -22 -25 -33 0
-61 -54 -36 -28 -19 -64 -53 -35 -27 -18 -62 -33 -25 -16 -55 -22 -13 -37 -12 -29 -20 0
-64 -19 -28 -36 -54 -61 -20 -29 -37 -55 -62 -12 -13 -16 -18 -22 -25 -27 -33 -35 -53 0
-20 -29 -37 -55 -62 -64 -12 -13 -16 -18 -19 -22 -25 -27 -28 -33 -35 -36 -53 -54 -61 0
-64 -62 -55 -37 -29 -20 -61 -54 -36 -28 -19 -53 -35 -27 -18 -33 -25 -16 -22 -13 -12 0
-12 -13 -16 -18 -19 -21 -22 -25 -27 -28 -30 -33 -35 -36 -38 -53 -54 -56 -61 -63 -65 0
-21 -19 -18 -16 -13 -12 -65 -63 -56 -38 -30 -61 -54 -36 -28 -53 -35 -27 -33 -25 -22 0
-12 -30 -28 -27 -25 -22 -21 -19 -18 -16 -13 -65 -63 -56 -38 -61 -54 -36 -53 -35 -33 0
-22 -25 -27 -28 -30 -12 -33 -35 -36 -38 -13 -53 -54 -56 -16 -61 -63 -18 -65 -19 -21 0
-22 -13 -38 -36 -35 -33 -12 -30 -28 -27 -25 -21 -19 -18 -16 -65 -63 -56 -61 -54 -53 0
-33 -35 -36 -38 -13 -22 -53 -54 -56 -16 -25 -61 -63 -18 -27 -65 -19 -28 -21 -30 -12 0
-33 -25 -16 -56 -54 -53 -22 -13 -38 -36 -35 -12 -30 -28 -27 -21 -19 -18 -65 -63 -61 0
-53 -54 -56 -16 -25 -33 -61 -63 -18 -27 -35 -65 -19 -28 -36 -21 -30 -38 -12 -13 -22 0
-53 -35 -27 -18 -63 -61 -33 -25 -16 -56 -54 -22 -13 -38 -36 -12 -30 -28 -21 -19 -65 0
-61 -63 -18 -27 -35 -53 -65 -19 -28 -36 -54 -21 -30 -38 -56 -12 -13 -16 -22 -25 -33 0
-61 -54 -36 -28 -19 -65 -53 -35 -27 -18 -63 -33 -25 -16 -56 -22 -13 -38 -12 -30 -21 0
-65 -19 -28 -36 -54 -61 -21 -30 -38 -56 -63 -12 -13 -16 -18 -22 -25 -27 -33 -35 -53 0
-21 -30 -38 -56 -63 -65 -12 -13 -16 -18 -19 -22 -25 -27 -28 -33 -35 -36 -53 -54 -61 0
-65 -63 -56 -38 -30 -21 -61 -54 -36 -28 -19 -53 -35 -27 -18 -33 -25 -16 -22 -13 -12 0
-12 -13 -16 -18 -20 -21 -22 -25 -27 -29 -30 -33 -35 -37 -38 -53 -55 -56 -62 -63 -66 0
-21 -20 -18 -16 -13 -12 -66 -63 -56 -38 -30 -62 -55 -37 -29 -53 -35 -27 -33 -25 -22 0
-12 -30 -29 -27 -25 -22 -21 -20 -18 -16 -13 -66 -63 -56 -38 -62 -55 -37 -53 -35 -33 0
-22 -25 -27 -29 -30 -12 -33 -35 -37 -38 -13 -53 -55 -56 -16 -62 -63 -18 -66 -20 -21 0
-22 -13 -38 -37 -35 -33 -12 -30 -29 -27 -25 -21 -20 -18 -16 -66 -63 -56 -62 -55 -53 0
-33 -35 -37 -38 -13 -22 -53 -55 -56 -16 -25 -62 -63 -18 -27 -66 -20 -29 -21 -30 -12 0
-33 -25 -16 -56 -55 -53 -22 -13 -38 -37 -35 -12 -30 -29 -27 -21 -20 -18 -66 -63 -62 0
-53 -55 -56 -16 -25 -33 -62 -63 -18 -27 -35 -66 -20 -29 -37 -21 -30 -38 -12 -13 -22 0
-53 -35 -27 -18 -63 -62 -33 -25 -16 -56 -55 -22 -13 -38 -37 -12 -30 -29 -21 -20 -66 0
-62 -63 -18 -27 -35 -53 -66 -20 -29 -37 -55 -21 -30 -38 -56 -12 -13 -16 -22 -25 -33 0
-62 -55 -37 -29 -20 -66 -53 -35 -27 -18 -63 -33 -25 -16 -56 -22 -13 -38 -12 -30 -21 0
-66 -20 -29 -37 -55 -62 -21 -30 -38 -56 -63 -12 -13 -16 -18 -22 -25 -27 -33 -35 -53 0
-21 -30 -38 -56 -63 -66 -12 -13 -16 -18 -20 -22 -25 -27 -29 -33 -35 -37 -53 -55 -62 0
-66 -63 -56 -38 -30 -21 -62 -55 -37 -29 -20 -53 -35 -27 -18 -33 -25 -16 -22 -13 -12 0
-12 -13 -16 -19 -20 -21 -22 -25 -28 -29 -30 -33 -36 -37 -38 -54 -55 -56 -64 -65 -66 0
-21 -20 -19 -16 -13 -12 -66 -65 -56 -38 -30 -64 -55 -37 -29 -54 -36 -28 -33 -25 -22 0
-12 -30 -29 -28 -25 -22 -21 -20 -19 -16 -13 -66 -65 -56 -38 -64 -55 -37 -54 -36 -33 0
-22 -25 -28 -29 -30 -12 -33 -36 -37 -38 -13 -54 -55 -56 -16 -64 -65 -19 -66 -20 -21 0
-22 -13 -38 -37 -36 -33 -12 -30 -29 -28 -25 -21 -20 -19 -16 -66 -65 -56 -64 -55 -54 0
-33 -36 -37 -38 -13 -22 -54 -55 -56 -16 -25 -64 -65 -19 -28 -66 -20 -29 -21 -30 -12 0
-33 -25 -16 -56 -55 -54 -22 -13 -38 -37 -36 -12 -30 -29 -28 -21 -20 -19 -66 -65 -64 0
-54 -55 -56 -16 -25 -33 -64 -65 -19 -28 -36 -66 -20 -29 -37 -21 -30 -38 -12 -13 -22 0
-54 -36 -28 -19 -65 -64 -33 -25 -16 -56 -55 -22 -13 -38 -37 -12 -30 -29 -21 -20 -66 0
-64 -65 -19 -28 -36 -54 -66 -20 -29 -37 -55 -21 -30 -38 -56 -12 -13 -16 -22 -25 -33 0
-64 -55 -37 -29 -20 -66 -54 -36 -28 -19 -65 -33 -25 -16 -56 -22 -13 -38 -12 -30 -21 0
-66 -20 -29 -37 -55 -64 -21 -30 -38 -56 -65 -12 -13 -16 -19 -22 -25 -28 -33 -36 -54 0
-21 -30 -38 -56 -65 -66 -12 -13 -16 -19 -20 -22 -25 -28 -29 -33 -36 -37 -54 -55 -64 0
-66 -65 -56 -38 -30 -21 -64 -55 -37 -29 -20 -54 -36 -28 -19 -33 -25 -16 -22 -13 -12 0
-12 -13 -17 -18 -19 -20 -22 -26 -27 -28 -29 -34 -35 -36 -37 -57 -58 -59 -61 -62 -64 0
-20 -19 -18 -17 -13 -12 -64 -62 -59 -37 -29 -61 -58 -36 -28 -57 -35 -27 -34 -26 -22 0
-12 -29 -28 -27 -26 -22 -20 -19 -18 -17 -13 -64 -62 -59 -37 -61 -58 -36 -57 -35 -34 0
-22 -26 -27 -28 -29 -12 -34 -35 -36 -37 -13 -57 -58 -59 -17 -61 -62 -18 -64 -19 -20 0
-22 -13 -37 -36 -35 -34 -12 -29 -28 -27 -26 -20 -19 -18 -17 -64 -62 -59 -61 -58 -57 0
-34 -35 -36 -37 -13 -22 -57 -58 -59 -17 -26 -61 -62 -18 -27 -64 -19 -28 -20 -29 -12 0
-34 -26 -17 -59 -58 -57 -22 -13 -37 -36 -35 -12 -29 -28 -27 -20 -19 -18 -64 -62 -61 0
-57 -58 -59 -17 -26 -34 -61 -62 -18 -27 -35 -64 -19 -28 -36 -20 -29 -37 -12 -13 -22 0
-57 -35 -27 -18 -62 -61 -34 -26 -17 -59 -58 -22 -13 -37 -36 -12 -29 -28 -20 -19 -64 0
-61 -62 -18 -27 -35 -57 -64 -19 -28 -36 -58 -20 -29 -37 -59 -12 -13 -17 -22 -26 -34 0
-61 -58 -36 -28 -19 -64 -57 -35 -27 -18 -62 -34 -26 -17 -59 -22 -13 -37 -12 -29 -20 0
-64 -19 -28 -36 -58 -61 -20 -29 -37 -59 -62 -12 -13 -17 -18 -22 -26 -27 -34 -35 -57 0
-20 -29 -37 -59 -62 -64 -12 -13 -17 -18 -19 -22 -26 -27 -28 -34 -35 -36 -57 -58 -61 0
-64 -62 -59 -37 -29 -20 -61 -58 -36 -28 -19 -57 -35 -27 -18 -34 -26 -17 -22 -13 -12 0
-12 -13 -17 -18 -19 -21 -22 -26 -27 -28 -30 -34 -35 -36 -38 -57 -58 -60 -61 -63 -65 0
-21 -19 -18 -17 -13 -12 -65 -63 -60 -38 -30 -61 -58 -36 -28 -57 -35 -27 -34 -26 -22 0
-12 -30 -28 -27 -26 -22 -21 -19 -18 -17 -13 -65 -63 -60 -38 -61 -58 -36 -57 -35 -34 0
-22 -26 -27 -28 -30 -12 -34 -35 -36 -38 -13 -57 -58 -60 -17 -61 -63 -18 -65 -19 -21 0
-22 -13 -38 -36 -35 -34 -12 -30 -28 -27 -26 -21 -19 -18 -17 -65 -63 -60 -61 -58 -57 0
-34 -35 -36 -38 -13 -22 -57 -58 -60 -17 -26 -61 -63 -18 -27 -65 -19 -28 -21 -30 -12 0
-34 -26 -17 -60 -58 -57 -22 -13 -38 -36 -35 -12 -30 -28 -27 -21 -19 -18 -65 -63 -61 0
-57 -58 -60 -17 -26 -34 -61 -63 -18 -27 -35 -65 -19 -28 -36 -21 -30 -38 -12 -13 -22 0
-57 -35 -27 -18 -63 -61 -34 -26 -17 -60 -58 -22 -13 -38 -36 -12 -30 -28 -21 -19 -65 0
-61 -63 -18 -27 -35 -57 -65 -19 -28 -36 -58 -21 -30 -38 -60 -12 -13 -17 -22 -26 -34 0
-61 -58 -36 -28 -19 -65 -57 -35 -27 -18 -63 -34 -26 -17 -60 -22 -13 -38 -12 -30 -21 0
-65 -19 -28 -36 -58 -61 -21 -30 -38 -60 -63 -12 -13 -17 -18 -22 -26 -27 -34 -35 -57 0
-21 -30 -38 -60 -63 -65 -12 -13 -17 -18 -19 -22 -26 -27 -28 -34 -35 -36 -57 -58 -61 0
-65 -63 -60 -38 -30 -21 -61 -58 -36 -28 -19 -57 -35 -27 -18 -34 -26 -17 -22 -13 -12 0
-12 -13 -17 -18 -20 -21 -22 -26 -27 -29 -30 -34 -35 -37 -38 -57 -59 -60 -62 -63 -66 0
-21 -20 -18 -17 -13 -12 -66 -63 -60 -38 -30 -62 -59 -37 -29 -57 -35 -27 -34 -26 -22 0
-12 -30 -29 -27 -26 -22 -21 -20 -18 -17 -13 -66 -63 -60 -38 -62 -59 -37 -57 -35 -34 0
-22 -26 -27 -29 -30 -12 -34 -35 -37 -38 -13 -57 -59 -60 -17 -62 -63 -18 -66 -20 -21 0
-22 -13 -38 -37 -35 -34 -12 -30 -29 -27 -26 -21 -20 -18 -17 -66 -63 -60 -62 -59 -57 0
-34 -35 -37 -38 -13 -22 -57 -59 -60 -17 -26 -62 -63 -18 -27 -66 -20 -29 -21 -30 -12 0
-34 -26 -17 -60 -59 -57 -22 -13 -38 -37 -35 -12 -30 -29 -27 -21 -20 -18 -66 -63 -62 0
-57 -59 -60 -17 -26 -34 -62 -63 -18 -27 -35 -66 -20 -29 -37 -21 -30 -38 -12 -13 -22 0
-57 -35 -27 -18 -63 -62 -34 -26 -17 -60 -59 -22 -13 -38 -37 -12 -30 -29 -21 -20 -66 0
-62 -63 -18 -27 -35 -57 -66 -20 -29 -37 -59 -21 -30 -38 -60 -12 -13 -17 -22 -26 -34 0
-62 -59 -37 -29 -20 -66 -57 -35 -27 -18 -63 -34 -26 -17 -60 -22 -13 -38 -12 -30 -21 0
-66 -20 -29 -37 -59 -62 -21 -30 -38 -60 -63 -12 -13 -17 -18 -22 -26 -27 -34 -35 -57 0
-21 -30 -38 -60 -63 -66 -12 -13 -17 -18 -20 -22 -26 -27 -29 -34 -35 -37 -57 -59 -62 0
-66 -63 -60 -38 -30 -21 -62 -59 -37 -29 -20 -57 -35 -27 -18 -34 -26 -17 -22 -13 -12 0
-12 -13 -17 -19 -20 -21 -22 -26 -28 -29 -30 -34 -36 -37 -38 -58 -59 -60 -64 -65 -66 0
-21 -20 -19 -17 -13 -12 -66 -65 -60 -38 -30 -64 -59 -37 -29 -58 -36 -28 -34 -26 -22 0
-12 -30 -29 -28 -26 -22 -21 -20 -19 -17 -13 -66 -65 -60 -38 -64 -59 -37 -58 -36 -34 0
-22 -26 -28 -29 -30 -12 -34 -36 -37 -38 -13 -58 -59 -60 -17 -64 -65 -19 -66 -20 -21 0
-22 -13 -38 -37 -36 -34 -12 -30 -29 -28 -26 -21 -20 -19 -17 -66 -65 -60 -64 -59 -58 0
-34 -36 -37 -38 -13 -22 -58 -59 -60 -17 -26 -64 -65 -19 -28 -66 -20 -29 -21 -30 -12 0
-34 -26 -17 -60 -59 -58 -22 -13 -38 -37 -36 -12 -30 -29 -28 -21 -20 -19 -66 -65 -64 0
-58 -59 -60 -17 -26 -34 -64 -65 -19 -28 -36 -66 -20 -29 -37 -21 -30 -38 -12 -13 -22 0
-58 -36 -28 -19 -65 -64 -34 -26 -17 -60 -59 -22 -13 -38 -37 -12 -30 -29 -21 -20 -66 0
-64 -65 -19 -28 -36 -58 -66 -20 -29 -37 -59 -21 -30 -38 -60 -12 -13 -17 -22 -26 -34 0
-64 -59 -37 -29 -20 -66 -58 -36 -28 -19 -65 -34 -26 -17 -60 -22 -13 -38 -12 -30 -21 0
-66 -20 -29 -37 -59 -64 -21 -30 -38 -60 -65 -12 -13 -17 -19 -22 -26 -28 -34 -36 -58 0
-21 -30 -38 -60 -65 -66 -12 -13 -17 -19 -20 -22 -26 -28 -29 -34 -36 -37 -58 -59 -64 0
-66 -65 -60 -38 -30 -21 -64 -59 -37 -29 -20 -58 -36 -28 -19 -34 -26 -17 -22 -13 -12 0
-12 -13 -18 -19 -20 -21 -22 -27 -28 -29 -30 -35 -36 -37 -38 -61 -62 -63 -64 -65 -66 0
-21 -20 -19 -18 -13 -12 -66 -65 -63 -38 -30 -64 -62 -37 -29 -61 -36 -28 -35 -27 -22 0
-12 -30 -29 -28 -27 -22 -21 -20 -19 -18 -13 -66 -65 -63 -38 -64 -62 -37 -61 -36 -35 0
-22 -27 -28 -29 -30 -12 -35 -36 -37 -38 -13 -61 -62 -63 -18 -64 -65 -19 -66 -20 -21 0
-22 -13 -38 -37 -36 -35 -12 -30 -29 -28 -27 -21 -20 -19 -18 -66 -65 -63 -64 -62 -61 0
-35 -36 -37 -38 -13 -22 -61 -62 -63 -18 -27 -64 -65 -19 -28 -66 -20 -29 -21 -30 -12 0
-35 -27 -18 -63 -62 -61 -22 -13 -38 -37 -36 -12 -30 -29 -28 -21 -20 -19 -66 -65 -64 0
-61 -62 -63 -18 -27 -35 -64 -65 -19 -28 -36 -66 -20 -29 -37 -21 -30 -38 -12 -13 -22 0
-61 -36 -28 -19 -65 -64 -35 -27 -18 -63 -62 -22 -13 -38 -37 -12 -30 -29 -21 -20 -66 0
-64 -65 -19 -28 -36 -61 -66 -20 -29 -37 -62 -21 -30 -38 -63 -12 -13 -18 -22 -27 -35 0
-64 -62 -37 -29 -20 -66 -61 -36 -28 -19 -65 -35 -27 -18 -63 -22 -13 -38 -12 -30 -21 0
-66 -20 -29 -37 -62 -64 -21 -30 -38 -63 -65 -12 -13 -18 -19 -22 -27 -28 -35 -36 -61 0
-21 -30 -38 -63 -65 -66 -12 -13 -18 -19 -20 -22 -27 -28 -29 -35 -36 -37 -61 -62 -64 0
-66 -65 -63 -38 -30 -21 -64 -62 -37 -29 -20 -61 -36 -28 -19 -35 -27 -18 -22 -13 -12 0
-12 -14 -15 -16 -17 -18 -23 -24 -25 -26 -27 -39 -40 -41 -42 -46 -47 -48 -52 -53 -57 0
-18 -17 -16 -15 -14 -12 -57 -53 -48 -42 -27 -52 -47 -41 -26 -46 -40 -25 -39 -24 -23 0
-12 -27 -26 -25 -24 -23 -18 -17 -16 -15 -14 -57 -53 -48 -42 -52 -47 -41 -46 -40 -39 0
-23 -24 -25 -26 -27 -12 -39 -40 -41 -42 -14 -46 -47 -48 -15 -52 -53 -16 -57 -17 -18 0
-23 -14 -42 -41 -40 -39 -12 -27 -26 -25 -24 -18 -17 -16 -15 -57 -53 -48 -52 -47 -46 0
-39 -40 -41 -42 -14 -23 -46 -47 -48 -15 -24 -52 -53 -16 -25 -57 -17 -26 -18 -27 -12 0
-39 -24 -15 -48 -47 -46 -23 -14 -42 -41 -40 -12 -27 -26 -25 -18 -17 -16 -57 -53 -52 0
-46 -47 -48 -15 -24 -39 -52 -53 -16 -25 -40 -57 -17 -26 -41 -18 -27 -42 -12 -14 -23 0
-46 -40 -25 -16 -53 -52 -39 -24 -15 -48 -47 -23 -14 -42 -41 -12 -27 -26 -18 -17 -57 0
-52 -53 -16 -25 -40 -46 -57 -17 -26 -41 -47 -18 -27 -42 -48 -12 -14 -15 -23 -24 -39 0
-52 -47 -41 -26 -17 -57 -46 -40 -25 -16 -53 -39 -24 -15 -48 -23 -14 -42 -12 -27 -18 0
-57 -17 -26 -41 -47 -52 -18 -27 -42 -48 -53 -12 -14 -15 -16 -23 -24 -25 -39 -40 -46 0
-18 -27 -42 -48 -53 -57 -12 -14 -15 -16 -17 -23 -24 -25 -26 -39 -40 -41 -46 -47 -52 0
-57 -53 -48 -42 -27 -18 -52 -47 -41 -26 -17 -46 -40 -25 -16 -39 -24 -15 -23 -14 -12 0
-12 -14 -15 -16 -17 -19 -23 -24 -25 -26 -28 -39 -40 -41 -43 -46 -47 -49 -52 -54 -58 0
-19 -17 -16 -15 -14 -12 -58 -54 -49 -43 -28 -52 -47 -41 -26 -46 -40 -25 -39 -24 -23 0
-12 -28 -26 -25 -24 -23 -19 -17 -16 -15 -14 -58 -54 -49 -43 -52 -47 -41 -46 -40 -39 0
-23 -24 -25 -26 -28 -12 -39 -40 -41 -43 -14 -46 -47 -49 -15 -52 -54 -16 -58 -17 -19 0
-23 -14 -43 -41 -40 -39 -12 -28 -26 -25 -24 -19 -17 -16 -15 -58 -54 -49 -52 -47 -46 0
-39 -40 -41 -43 -14 -23 -46 -47 -49 -15 -24 -52 -54 -16 -25 -58 -17 -26 -19 -28 -12 0
-39 -24 -15 -49 -47 -46 -23 -14 -43 -41 -40 -12 -28 -26 -25 -19 -17 -16 -58 -54 -52 0
-46 -47 -49 -15 -24 -39 -52 -54 -16 -25 -40 -58 -17 -26 -41 -19 -28 -43 -12 -14 -23 0
-46 -40 -25 -16 -54 -52 -39 -24 -15 -49 -47 -23 -14 -43 -41 -12 -28 -26 -19 -17 -58 0
-52 -54 -16 -25 -40 -46 -58 -17 -26 -41 -47 -19 -28 -43 -49 -12 -14 -15 -23 -24 -39 0
-52 -47 -41 -26 -17 -58 -46 -40 -25 -16 -54 -39 -24 -15 -49 -23 -14 -43 -12 -28 -19 0
-58 -17 -26 -41 -47 -52 -19 -28 -43 -49 -54 -12 -14 -15 -16 -23 -24 -25 -39 -40 -46 0
-19 -28 -43 -49 -54 -58 -12 -14 -15 -16 -17 -23 -24 -25 -26 -39 -40 -41 -46 -47 -52 0
-58 -54 -49 -43 -28 -19 -52 -47 -41 -26 -17 -46 -40 -25 -16 -39 -24 -15 -23 -14 -12 0
-12 -14 -15 -16 -17 -20 -23 -24 -25 -26 -29 -39 -40 -41 -44 -46 -47 -50 -52 -55 -59 0
-20 -17 -16 -15 -14 -12 -59 -55 -50 -44 -29 -52 -47 -41 -26 -46 -40 -25 -39 -24 -23 0
-12 -29 -26 -25 -24 -23 -20 -17 -16 -15 -14 -59 -55 -50 -44 -52 -47 -41 -46 -40 -39 0
-23 -24 -25 -26 -29 -12 -39 -40 -41 -44 -14 -46 -47 -50 -15 -52 -55 -16 -59 -17 -20 0
-23 -14 -44 -41 -40 -39 -12 -29 -26 -25 -24 -20 -17 -16 -15 -59 -55 -50 -52 -47 -46 0
-39 -40 -41 -44 -14 -23 -46 -47 -50 -15 -24 -52 -55 -16 -25 -59 -17 -26 -20 -29 -12 0
-39 -24 -15 -50 -47 -46 -23 -14 -44 -41 -40 -12 -29 -26 -25 -20 -17 -16 -59 -55 -52 0
-46 -47 -50 -15 -24 -39 -52 -55 -16 -25 -40 -59 -17 -26 -41 -20 -29 -44 -12 -14 -23 0
-46 -40 -25 -16 -55 -52 -39 -24 -15 -50 -47 -23 -14 -44 -41 -12 -29 -26 -20 -17 -59 0
-52 -55 -16 -25 -40 -46 -59 -17 -26 -41 -47 -20 -29 -44 -50 -12 -14 -15 -23 -24 -39 0
-52 -47 -41 -26 -17 -59 -46 -40 -25 -16 -55 -39 -24 -15 -50 -23 -14 -44 -12 -29 -20 0
-59 -17 -26 -41 -47 -52 -20 -29 -44 -50 -55 -12 -14 -15 -16 -23 -24 -25 -39 -40 -46 0
-20 -29 -44 -50 -55 -59 -12 -14 -15 -16 -17 -23 -24 -25 -26 -39 -40 -41 -46 -47 -52 0
-59 -55 -50 -44 -29 -20 -52 -47 -41 -26 -17 -46 -40 -25 -16 -39 -24 -15 -23 -14 -12 0
-12 -14 -15 -16 -17 -21 -23 -24 -25 -26 -30 -39 -40 -41 -45 -46 -47 -51 -52 -56 -60 0
-21 -17 -16 -15 -14 -12 -60 -56 -51 -45 -30 -52 -47 -41 -26 -46 -40 -25 -39 -24 -23 0
-12 -30 -26 -25 -24 -23 -21 -17 -16 -15 -14 -60 -56 -51 -45 -52 -47 -41 -46 -40 -39 0
-23 -24 -25 -26 -30 -12 -39 -40 -41 -45 -14 -46 -47 -51 -15 -52 -56 -16 -60 -17 -21 0
-23 -14 -45 -41 -40 -39 -12 -30 -26 -25 -24 -21 -17 -16 -15 -60 -56 -51 -52 -47 -46 0
-39 -40 -41 -45 -14 -23 -46 -47 -51 -15 -24 -52 -56 -16 -25 -60 -17 -26 -21 -30 -12 0
-39 -24 -15 -51 -47 -46 -23 -14 -45 -41 -40 -12 -30 -26 -25 -21 -17 -16 -60 -56 -52 0
-46 -47 -51 -15 -24 -39 -52 -56 -16 -25 -40 -60 -17 -26 -41 -21 -30 -45 -12 -14 -23 0
-46 -40 -25 -16 -56 -52 -39 -24 -15 -51 -47 -23 -14 -45 -41 -12 -30 -26 -21 -17 -60 0
-52 -56 -16 -25 -40 -46 -60 -17 -26 -41 -47 -21 -30 -45 -51 -12 -14 -15 -23 -24 -39 0
-52 -47 -41 -26 -17 -60 -46 -40 -25 -16 -56 -39 -24 -15 -51 -23 -14 -45 -12 -30 -21 0
-60 -17 -26 -41 -47 -52 -21 -30 -45 -51 -56 -12 -14 -15 -16 -23 -24 -25 -39 -40 -46 0
-21 -30 -45 -51 -56 -60 -12 -14 -15 -16 -17 -23 -24 -25 -26 -39 -40 -41 -46 -47 -52 0
-60 -56 -51 -45 -30 -21 -52 -47 -41 -26 -17 -46 -40 -25 -16 -39 -24 -15 -23 -14 -12 0
-12 -14 -15 -16 -18 -19 -23 -24 -25 -27 -28 -39 -40 -42 -43 -46 -48 -49 -53 -54 -61 0
-19 -18 -16 -15 -14 -12 -61 -54 -49 -43 -28 -53 -48 -42 -27 -46 -40 -25 -39 -24 -23 0
-12 -28 -27 -25 -24 -23 -19 -18 -16 -15 -14 -61 -54 -49 -43 -53 -48 -42 -46 -40 -39 0
-23 -24 -25 -27 -28 -12 -39 -40 -42 -43 -14 -46 -48 -49 -15 -53 -54 -16 -61 -18 -19 0
-23 -14 -43 -42 -40 -39 -12 -28 -27 -25 -24 -19 -18 -16 -15 -61 -54 -49 -53 -48 -46 0
-39 -40 -42 -43 -14 -23 -46 -48 -49 -15 -24 -53 -54 -16 -25 -61 -18 -27 -19 -28 -12 0
-39 -24 -15 -49 -48 -46 -23 -14 -43 -42 -40 -12 -28 -27 -25 -19 -18 -16 -61 -54 -53 0
-46 -48 -49 -15 -24 -39 -53 -54 -16 -25 -40 -61 -18 -27 -42 -19 -28 -43 -12 -14 -23 0
-46 -40 -25 -16 -54 -53 -39 -24 -15 -49 -48 -23 -14 -43 -42 -12 -28 -27 -19 -18 -61 0
-53 -54 -16 -25 -40 -46 -61 -18 -27 -42 -48 -19 -28 -43 -49 -12 -14 -15 -23 -24 -39 0
-53 -48 -42 -27 -18 -61 -46 -40 -25 -16 -54 -39 -24 -15 -49 -23 -14 -43 -12 -28 -19 0
-61 -18 -27 -42 -48 -53 -19 -28 -43 -49 -54 -12 -14 -15 -16 -23 -24 -25 -39 -40 -46 0
-19 -28 -43 -49 -54 -61 -12 -14 -15 -16 -18 -23 -24 -25 -27 -39 -40 -42 -46 -48 -53 0
-61 -54 -49 -43 -28 -19 -53 -48 -42 -27 -18 -46 -40 -25 -16 -39 -24 -15 -23 -14 -12 0
-12 -14 -15 -16 -18 -20 -23 -24 -25 -27 -29 -39 -40 -42 -44 -46 -48 -50 -53 -55 -62 0
-20 -18 -16 -15 -14 -12 -62 -55 -50 -44 -29 -53 -48 -42 -27 -46 -40 -25 -39 -24 -23 0
-12 -29 -27 -25 -24 -23 -20 -18 -16 -15 -14 -62 -55 -50 -44 -53 -48 -42 -46 -40 -39 0
-23 -24 -25 -27 -29 -12 -39 -40 -42 -44 -14 -46 -48 -50 -15 -53 -55 -16 -62 -18 -20 0
-23 -14 -44 -42 -40 -39 -12 -29 -27 -25 -24 -20 -18 -16 -15 -62 -55 -50 -53 -48 -46 0
-39 -40 -42 -44 -14 -23 -46 -48 -50 -15 -24 -53 -55 -16 -25 -62 -18 -27 -20 -29 -12 0
-39 -24 -15 -50 -48 -46 -23 -14 -44 -42 -40 -12 -29 -27 -25 -20 -18 -16 -62 -55 -53 0
-46 -48 -50 -15 -24 -39 -53 -55 -16 -25 -40 -62 -18 -27 -42 -20 -29 -44 -12 -14 -23 0
-46 -40 -25 -16 -55 -53 -39 -24 -15 -50 -48 -23 -14 -44 -42 -12 -29 -27 -20 -18 -62 0
-53 -55 -16 -25 -40 -46 -62 -18 -27 -42 -48 -20 -29 -44 -50 -12 -14 -15 -23 -24 -39 0
-53 -48 -42 -27 -18 -62 -46 -40 -25 -16 -55 -39 -24 -15 -50 -23 -14 -44 -12 -29 -20 0
-62 -18 -27 -42 -48 -53 -20 -29 -44 -50 -55 -12 -14 -15 -16 -23 -24 -25 -39 -40 -46 0
-20 -29 -44 -50 -55 -62 -12 -14 -15 -16 -18 -23 -24 -25 -27 -39 -40 -42 -46 -48 -53 0
-62 -55 -50 -44 -29 -20 -53 -48 -42 -27 -18 -46 -40 -25 -16 -39 -24 -15 -23 -14 -12 0
-12 -14 -15 -16 -18 -21 -23 -24 -25 -27 -30 -39 -40 -42 -45 -46 -48 -51 -53 -56 -63 0
-21 -18 -16 -15 -14 -12 -63 -56 -51 -45 -30 -53 -48 -42 -27 -46 -40 -25 -39 -24 -23 0
-12 -30 -27 -25 -24 -23 -21 -18 -16 -15 -14 -63 -56 -51 -45 -53 -48 -42 -46 -40 -39 0
-23 -24 -25 -27 -30 -12 -39 -40 -42 -45 -14 -46 -48 -51 -15 -53 -56 -16 -63 -18 -21 0
-23 -14 -45 -42 -40 -39 -12 -30 -27 -25 -24 -21 -18 -16 -15 -63 -56 -51 -53 -48 -46 0
-39 -40 -42 -45 -14 -23 -46 -48 -51 -15 -24 -53 -56 -16 -25 -63 -18 -27 -21 -30 -12 0
-39 -24 -15 -51 -48 -46 -23 -14 -45 -42 -40 -12 -30 -27 -25 -21 -18 -16 -63 -56 -53 0
-46 -48 -51 -15 -24 -39 -53 -56 -16 -25 -40 -63 -18 -27 -42 -21 -30 -45 -12 -14 -23 0
-46 -40 -25 -16 -56 -53 -39 -24 -15 -51 -48 -23 -14 -45 -42 -12 -30 -27 -21 -18 -63 0
-53 -56 -16 -25 -40 -46 -63 -18 -27 -42 -48 -21 -30 -45 -51 -12 -14 -15 -23 -24 -39 0
-53 -48 -42 -27 -18 -63 -46 -40 -25 -16 -56 -39 -24 -15 -51 -23 -14 -45 -12 -30 -21 0
-63 -18 -27 -42 -48 -53 -21 -30 -45 -51 -56 -12 -14 -15 -16 -23 -24 -25 -39 -40 -46 0
-21 -30 -45 -51 -56 -63 -12 -14 -15 -16 -18 -23 -24 -25 -27 -39 -40 -42 -46 -48 -53 0
-63 -56 -51 -45 -30 -21 -53 -48 -42 -27 -18 -46 -40 -25 -16 -39 -24 -15 -23 -14 -12 0
-12 -14 -15 -16 -19 -20 -23 -24 -25 -28 -29 -39 -40 -43 -44 -46 -49 -50 -54 -55 -64 0
-20 -19 -16 -15 -14 -12 -64 -55 -50 -44 -29 -54 -49 -43 -28 -46 -40 -25 -39 -24 -23 0
-12 -29 -28 -25 -24 -23 -20 -19 -16 -15 -14 -64 -55 -50 -44 -54 -49 -43 -46 -40 -39 0
-23 -24 -25 -28 -29 -12 -39 -40 -43 -44 -14 -46 -49 -50 -15 -54 -55 -16 -64 -19 -20 0
-23 -14 -44 -43 -40 -39 -12 -29 -28 -25 -24 -20 -19 -16 -15 -64 -55 -50 -54 -49 -46 0
-39 -40 -43 -44 -14 -23 -46 -49 -50 -15 -24 -54 -55 -16 -25 -64 -19 -28 -20 -29 -12 0
-39 -24 -15 -50 -49 -46 -23 -14 -44 -43 -40 -12 -29 -28 -25 -20 -19 -16 -64 -55 -54 0
-46 -49 -50 -15 -24 -39 -54 -55 -16 -25 -40 -64 -19 -28 -43 -20 -29 -44 -12 -14 -23 0
-46 -40 -25 -16 -55 -54 -39 -24 -15 -50 -49 -23 -14 -44 -43 -12 -29 -28 -20 -19 -64 0
-54 -55 -16 -25 -40 -46 -64 -19 -28 -43 -49 -20 -29 -44 -50 -12 -14 -15 -23 -24 -39 0
-54 -49 -43 -28 -19 -64 -46 -40 -25 -16 -55 -39 -24 -15 -50 -23 -14 -44 -12 -29 -20 0
-64 -19 -28 -43 -49 -54 -20 -29 -44 -50 -55 -12 -14 -15 -16 -23 -24 -25 -39 -40 -46 0
-20 -29 -44 -50 -55 -64 -12 -14 -15 -16 -19 -23 -24 -25 -28 -39 -40 -43 -46 -49 -54 0
-64 -55 -50 -44 -29 -20 -54 -49 -43 -28 -19 -46 -40 -25 -16 -39 -24 -15 -23 -14 -12 0
-12 -14 -15 -16 -19 -21 -23 -24 -25 -28 -30 -39 -40 -43 -45 -46 -49 -51 -54 -56 -65 0
-21 -19 -16 -15 -14 -12 -65 -56 -51 -45 -30 -54 -49 -43 -28 -46 -40 -25 -39 -24 -23 0
-12 -30 -28 -25 -24 -23 -21 -19 -16 -15 -14 -65 -56 -51 -45 -54 -49 -43 -46 -40 -39 0
-23 -24 -25 -28 -30 -12 -39 -40 -43 -45 -14 -46 -49 -51 -15 -54 -56 -16 -65 -19 -21 0
-23 -14 -45 -43 -40 -39 -12 -30 -28 -25 -24 -21 -19 -16 -15 -65 -56 -51 -54 -49 -46 0
-39 -40 -43 -45 -14 -23 -46 -49 -51 -15 -24 -54 -56 -16 -25 -65 -19 -28 -21 -30 -12 0
-39 -24 -15 -51 -49 -46 -23 -14 -45 -43 -40 -12 -30 -28 -25 -21 -19 -16 -65 -56 -54 0
-46 -49 -51 -15 -24 -39 -54 -56 -16 -25 -40 -65 -19 -28 -43 -21 -30 -45 -12 -14 -23 0
-46 -40 -25 -16 -56 -54 -39 -24 -15 -51 -49 -23 -14 -45 -43 -12 -30 -28 -21 -19 -65 0
-54 -56 -16 -25 -40 -46 -65 -19 -28 -43 -49 -21 -30 -45 -51 -12 -14 -15 -23 -24 -39 0
-54 -49 -43 -28 -19 -65 -46 -40 -25 -16 -56 -39 -24 -15 -51 -23 -14 -45 -12 -30 -21 0
-65 -19 -28 -43 -49 -54 -21 -30 -45 -51 -56 -12 -14 -15 -16 -23 -24 -25 -39 -40 -46 0
-21 -30 -45 -51 -56 -65 -12 -14 -15 -16 -19 -23 -24 -25 -28 -39 -40 -43 -46 -49 -54 0
-65 -56 -51 -45 -30 -21 -54 -49 -43 -28 -19 -46 -40 -25 -16 -39 -24 -15 -23 -14 -12 0
-12 -14 -15 -16 -20 -21 -23 -24 -25 -29 -30 -39 -40 -44 -45 -46 -50 -51 -55 -56 -66 0
-21 -20 -16 -15 -14 -12 -66 -56 -51 -45 -30 -55 -50 -44 -29 -46 -40 -25 -39 -24 -23 0
-12 -30 -29 -25 -24 -23 -21 -20 -16 -15 -14 -66 -56 -51 -45 -55 -50 -44 -46 -40 -39 0
-23 -24 -25 -29 -30 -12 -39 -40 -44 -45 -14 -46 -50 -51 -15 -55 -56 -16 -66 -20 -21 0
-23 -14 -45 -44 -40 -39 -12 -30 -29 -25 -24 -21 -20 -16 -15 -66 -56 -51 -55 -50 -46 0
-39 -40 -44 -45 -14 -23 -46 -50 -51 -15 -24 -55 -56 -16 -25 -66 -20 -29 -21 -30 -12 0
-39 -24 -15 -51 -50 -46 -23 -14 -45 -44 -40 -12 -30 -29 -25 -21 -20 -16 -66 -56 -55 0
-46 -50 -51 -15 -24 -39 -55 -56 -16 -25 -40 -66 -20 -29 -44 -21 -30 -45 -12 -14 -23 0
-46 -40 -25 -16 -56 -55 -39 -24 -15 -51 -50 -23 -14 -45 -44 -12 -30 -29 -21 -20 -66 0
-55 -56 -16 -25 -40 -46 -66 -20 -29 -44 -50 -21 -30 -45 -51 -12 -14 -15 -23 -24 -39 0
-55 -50 -44 -29 -20 -66 -46 -40 -25 -16 -56 -39 -24 -15 -51 -23 -14 -45 -12 -30 -21 0
-66 -20 -29 -44 -50 -55 -21 -30 -45 -51 -56 -12 -14 -15 -16 -23 -24 -25 -39 -40 -46 0
-21 -30 -45 -51 -56 -66 -12 -14 -15 -16 -20 -23 -24 -25 -29 -39 -40 -44 -46 -50 -55 0
-66 -56 -51 -45 -30 -21 -55 -50 -44 -29 -20 -46 -40 -25 -16 -39 -24 -15 -23 -14 -12 0
-12 -14 -15 -17 -18 -19 -23 -24 -26 -27 -28 -39 -41 -42 -43 -47 -48 -49 -57 -58 -61 0
-19 -18 -17 -15 -14 -12 -61 -58 -49 -43 -28 -57 -48 -42 -27 -47 -41 -26 -39 -24 -23 0
-12 -28 -27 -26 -24 -23 -19 -18 -17 -15 -14 -61 -58 -49 -43 -57 -48 -42 -47 -41 -39 0
-23 -24 -26 -27 -28 -12 -39 -41 -42 -43 -14 -47 -48 -49 -15 -57 -58 -17 -61 -18 -19 0
-23 -14 -43 -42 -41 -39 -12 -28 -27 -26 -24 -19 -18 -17 -15 -61 -58 -49 -57 -48 -47 0
-39 -41 -42 -43 -14 -23 -47 -48 -49 -15 -24 -57 -58 -17 -26 -61 -18 -27 -19 -28 -12 0
-39 -24 -15 -49 -48 -47 -23 -14 -43 -42 -41 -12 -28 -27 -26 -19 -18 -17 -61 -58 -57 0
-47 -48 -49 -15 -24 -39 -57 -58 -17 -26 -41 -61 -18 -27 -42 -19 -28 -43 -12 -14 -23 0
-47 -41 -26 -17 -58 -57 -39 -24 -15 -49 -48 -23 -14 -43 -42 -12 -28 -27 -19 -18 -61 0
-57 -58 -17 -26 -41 -47 -61 -18 -27 -42 -48 -19 -28 -43 -49 -12 -14 -15 -23 -24 -39 0
-57 -48 -42 -27 -18 -61 -47 -41 -26 -17 -58 -39 -24 -15 -49 -23 -14 -43 -12 -28 -19 0
-61 -18 -27 -42 -48 -57 -19 -28 -43 -49 -58 -12 -14 -15 -17 -23 -24 -26 -39 -41 -47 0
-19 -28 -43 -49 -58 -61 -12 -14 -15 -17 -18 -23 -24 -26 -27 -39 -41 -42 -47 -48 -57 0
-61 -58 -49 -43 -28 -19 -57 -48 -42 -27 -18 -47 -41 -26 -17 -39 -24 -15 -23 -14 -12 0
-12 -14 -15 -17 -18 -20 -23 -24 -26 -27 -29 -39 -41 -42 -44 -47 -48 -50 -57 -59 -62 0
-20 -18 -17 -15 -14 -12 -62 -59 -50 -44 -29 -57 -48 -42 -27 -47 -41 -26 -39 -24 -23 0
-12 -29 -27 -26 -24 -23 -20 -18 -17 -15 -14 -62 -59 -50 -44 -57 -48 -42 -47 -41 -39 0
-23 -24 -26 -27 -29 -12 -39 -41 -42 -44 -14 -47 -48 -50 -15 -57 -59 -17 -62 -18 -20 0
-23 -14 -44 -42 -41 -39 -12 -29 -27 -26 -24 -20 -18 -17 -15 -62 -59 -50 -57 -48 -47 0
-39 -41 -42 -44 -14 -23 -47 -48 -50 -15 -24 -57 -59 -17 -26 -62 -18 -27 -20 -29 -12 0
-39 -24 -15 -50 -48 -47 -23 -14 -44 -42 -41 -12 -29 -27 -26 -20 -18 -17 -62 -59 -57 0
-47 -48 -50 -15 -24 -39 -57 -59 -17 -26 -41 -62 -18 -27 -42 -20 -29 -44 -12 -14 -23 0
-47 -41 -26 -17 -59 -57 -39 -24 -15 -50 -48 -23 -14 -44 -42 -12 -29 -27 -20 -18 -62 0
-57 -59 -17 -26 -41 -47 -62 -18 -27 -42 -48 -20 -29 -44 -50 -12 -14 -15 -23 -24 -39 0
-57 -48 -42 -27 -18 -62 -47 -41 -26 -17 -59 -39 -24 -15 -50 -23 -14 -44 -12 -29 -20 0
-62 -18 -27 -42 -48 -57 -20 -29 -44 -50 -59 -12 -14 -15 -17 -23 -24 -26 -39 -41 -47 0
-20 -29 -44 -50 -59 -62 -12 -14 -15 -17 -18 -23 -24 -26 -27 -39 -41 -42 -47 -48 -57 0
-62 -59 -50 -44 -29 -20 -57 -48 -42 -27 -18 -47 -41 -26 -17 -39 -24 -15 -23 -14 -12 0
-12 -14 -15 -17 -18 -21 -23 -24 -26 -27 -30 -39 -41 -42 -45 -47 -48 -51 -57 -60 -63 0
-21 -18 -17 -15 -14 -12 -63 -60 -51 -45 -30 -57 -48 -42 -27 -47 -41 -26 -39 -24 -23 0
-12 -30 -27 -26 -24 -23 -21 -18 -17 -15 -14 -63 -60 -51 -45 -57 -48 -42 -47 -41 -39 0
-23 -24 -26 -27 -30 -12 -39 -41 -42 -45 -14 -47 -48 -51 -15 -57 -60 -17 -63 -18 -21 0
-23 -14 -45 -42 -41 -39 -12 -30 -27 -26 -24 -21 -18 -17 -15 -63 -60 -51 -57 -48 -47 0
-39 -41 -42 -45 -14 -23 -47 -48 -51 -15 -24 -57 -60 -17 -26 -63 -18 -27 -21 -30 -12 0
-39 -24 -15 -51 -48 -47 -23 -14 -45 -42 -41 -12 -30 -27 -26 -21 -18 -17 -63 -60 -57 0
-47 -48 -51 -15 -24 -39 -57 -60 -17 -26 -41 -63 -18 -27 -42 -21 -30 -45 -12 -14 -23 0
-47 -41 -26 -17 -60 -57 -39 -24 -15 -51 -48 -23 -14 -45 -42 -12 -30 -27 -21 -18 -63 0
-57 -60 -17 -26 -41 -47 -63 -18 -27 -42 -48 -21 -30 -45 -51 -12 -14 -15 -23 -24 -39 0
-57 -48 -42 -27 -18 -63 -47 -41 -26 -17 -60 -39 -24 -15 -51 -23 -14 -45 -12 -30 -21 0
-63 -18 -27 -42 -48 -57 -21 -30 -45 -51 -60 -12 -14 -15 -17 -23 -24 -26 -39 -41 -47 0
-21 -30 -45 -51 -60 -63 -12 -14 -15 -17 -18 -23 -24 -26 -27 -39 -41 -42 -47 -48 -57 0
-63 -60 -51 -45 -30 -21 -57 -48 -42 -27 -18 -47 -41 -26 -17 -39 -24 -15 -23 -14 -12 0
-12 -14 -15 -17 -19 -20 -23 -24 -26 -28 -29 -39 -41 -43 -44 -47 -49 -50 -58 -59 -64 0
-20 -19 -17 -15 -14 -12 -64 -59 -50 -44 -29 -58 -49 -43 -28 -47 -41 -26 -39 -24 -23 0
-12 -29 -28 -26 -24 -23 -20 -19 -17 -15 -14 -64 -59 -50 -44 -58 -49 -43 -47 -41 -39 0
-23 -24 -26 -28 -29 -12 -39 -41 -43 -44 -14 -47 -49 -50 -15 -58 -59 -17 -64 -19 -20 0
-23 -14 -44 -43 -41 -39 -12 -29 -28 -26 -24 -20 -19 -17 -15 -64 -59 -50 -58 -49 -47 0
-39 -41 -43 -44 -14 -23 -47 -49 -50 -15 -24 -58 -59 -17 -26 -64 -19 -28 -20 -29 -12 0
-39 -24 -15 -50 -49 -47 -23 -14 -44 -43 -41 -12 -29 -28 -26 -20 -19 -17 -64 -59 -58 0
-47 -49 -50 -15 -24 -39 -58 -59 -17 -26 -41 -64 -19 -28 -43 -20 -29 -44 -12 -14 -23 0
-47 -41 -26 -17 -59 -58 -39 -24 -15 -50 -49 -23 -14 -44 -43 -12 -29 -28 -20 -19 -64 0
-58 -59 -17 -26 -41 -47 -64 -19 -28 -43 -49 -20 -29 -44 -50 -12 -14 -15 -23 -24 -39 0
-58 -49 -43 -28 -19 -64 -47 -41 -26 -17 -59 -39 -24 -15 -50 -23 -14 -44 -12 -29 -20 0
-64 -19 -28 -43 -49 -58 -20 -29 -44 -50 -59 -12 -14 -15 -17 -23 -24 -26 -39 -41 -47 0
-20 -29 -44 -50 -59 -64 -12 -14 -15 -17 -19 -23 -24 -26 -28 -39 -41 -43 -47 -49 -58 0
-64 -59 -50 -44 -29 -20 -58 -49 -43 -28 -19 -47 -41 -26 -17 -39 -24 -15 -23 -14 -12 0
-12 -14 -15 -17 -19 -21 -23 -24 -26 -28 -30 -39 -41 -43 -45 -47 -49 -51 -58 -60 -65 0
-21 -19 -17 -15 -14 -12 -65 -60 -51 -45 -30 -58 -49 -43 -28 -47 -41 -26 -39 -24 -23 0
-12 -30 -28 -26 -24 -23 -21 -19 -17 -15 -14 -65 -60 -51 -45 -58 -49 -43 -47 -41 -39 0
-23 -24 -26 -28 -30 -12 -39 -41 -43 -45 -14 -47 -49 -51 -15 -58 -60 -17 -65 -19 -21 0
-23 -14 -45 -43 -41 -39 -12 -30 -28 -26 -24 -21 -19 -17 -15 -65 -60 -51 -58 -49 -47 0
-39 -41 -43 -45 -14 -23 -47 -49 -51 -15 -24 -58 -60 -17 -26 -65 -19 -28 -21 -30 -12 0
-39 -24 -15 -51 -49 -47 -23 -14 -45 -43 -41 -12 -30 -28 -26 -21 -19 -17 -65 -60 -58 0
-47 -49 -51 -15 -24 -39 -58 -60 -17 -26 -41 -65 -19 -28 -43 -21 -30 -45 -12 -14 -23 0
-47 -41 -26 -17 -60 -58 -39 -24 -15 -51 -49 -23 -14 -45 -43 -12 -30 -28 -21 -19 -65 0
-58 -60 -17 -26 -41 -47 -65 -19 -28 -43 -49 -21 -30 -45 -51 -12 -14 -15 -23 -24 -39 0
-58 -49 -43 -28 -19 -65 -47 -41 -26 -17 -60 -39 -24 -15 -51 -23 -14 -45 -12 -30 -21 0
-65 -19 -28 -43 -49 -58 -21 -30 -45 -51 -60 -12 -14 -15 -17 -23 -24 -26 -39 -41 -47 0
-21 -30 -45 -51 -60 -65 -12 -14 -15 -17 -19 -23 -24 -26 -28 -39 -41 -43 -47 -49 -58 0
-65 -60 -51 -45 -30 -21 -58 -49 -43 -28 -19 -47 -41 -26 -17 -39 -24 -15 -23 -14 -12 0
-12 -14 -15 -17 -20 -21 -23 -24 -26 -29 -30 -39 -41 -44 -45 -47 -50 -51 -59 -60 -66 0
-21 -20 -17 -15 -14 -12 -66 -60 -51 -45 -30 -59 -50 -44 -29 -47 -41 -26 -39 -24 -23 0
-12 -30 -29 -26 -24 -23 -21 -20 -17 -15 -14 -66 -60 -51 -45 -59 -50 -44 -47 -41 -39 0
-23 -24 -26 -29 -30 -12 -39 -41 -44 -45 -14 -47 -50 -51 -15 -59 -60 -17 -66 -20 -21 0
-23 -14 -45 -44 -41 -39 -12 -30 -29 -26 -24 -21 -20 -17 -15 -66 -60 -51 -59 -50 -47 0
-39 -41 -44 -45 -14 -23 -47 -50 -51 -15 -24 -59 -60 -17 -26 -66 -20 -29 -21 -30 -12 0
-39 -24 -15 -51 -50 -47 -23 -14 -45 -44 -41 -12 -30 -29 -26 -21 -20 -17 -66 -60 -59 0
-47 -50 -51 -15 -24 -39 -59 -60 -17 -26 -41 -66 -20 -29 -44 -21 -30 -45 -12 -14 -23 0
-47 -41 -26 -17 -60 -59 -39 -24 -15 -51 -50 -23 -14 -45 -44 -12 -30 -29 -21 -20 -66 0
-59 -60 -17 -26 -41 -47 -66 -20 -29 -44 -50 -21 -30 -45 -51 -12 -14 -15 -23 -24 -39 0
-59 -50 -44 -29 -20 -66 -47 -41 -26 -17 -60 -39 -24 -15 -51 -23 -14 -45 -12 -30 -21 0
-66 -20 -29 -44 -50 -59 -21 -30 -45 -51 -60 -12 -14 -15 -17 -23 -24 -26 -39 -41 -47 0
-21 -30 -45 -51 -60 -66 -12 -14 -15 -17 -20 -23 -24 -26 -29 -39 -41 -44 -47 -50 -59 0
-66 -60 -51 -45 -30 -21 -59 -50 -44 -29 -20 -47 -41 -26 -17 -39 -24 -15 -23 -14 -12 0
-12 -14 -15 -18 -19 -20 -23 -24 -27 -28 -29 -39 -42 -43 -44 -48 -49 -50 -61 -62 -64 0
-20 -19 -18 -15 -14 -12 -64 -62 -50 -44 -29 -61 -49 -43 -28 -48 -42 -27 -39 -24 -23 0
-12 -29 -28 -27 -24 -23 -20 -19 -18 -15 -14 -64 -62 -50 -44 -61 -49 -43 -48 -42 -39 0
-23 -24 -27 -28 -29 -12 -39 -42 -43 -44 -14 -48 -49 -50 -15 -61 -62 -18 -64 -19 -20 0
-23 -14 -44 -43 -42 -39 -12 -29 -28 -27 -24 -20 -19 -18 -15 -64 -62 -50 -61 -49 -48 0
-39 -42 -43 -44 -14 -23 -48 -49 -50 -15 -24 -61 -62 -18 -27 -64 -19 -28 -20 -29 -12 0
-39 -24 -15 -50 -49 -48 -23 -14 -44 -43 -42 -12 -29 -28 -27 -20 -19 -18 -64 -62 -61 0
-48 -49 -50 -15 -24 -39 -61 -62 -18 -27 -42 -64 -19 -28 -43 -20 -29 -44 -12 -14 -23 0
-48 -42 -27 -18 -62 -61 -39 -24 -15 -50 -49 -23 -14 -44 -43 -12 -29 -28 -20 -19 -64 0
-61 -62 -18 -27 -42 -48 -64 -19 -28 -43 -49 -20 -29 -44 -50 -12 -14 -15 -23 -24 -39 0
-61 -49 -43 -28 -19 -64 -48 -42 -27 -18 -62 -39 -24 -15 -50 -23 -14 -44 -12 -29 -20 0
-64 -19 -28 -43 -49 -61 -20 -29 -44 -50 -62 -12 -14 -15 -18 -23 -24 -27 -39 -42 -48 0
-20 -29 -44 -50 -62 -64 -12 -14 -15 -18 -19 -23 -24 -27 -28 -39 -42 -43 -48 -49 -61 0
-64 -62 -50 -44 -29 -20 -61 -49 -43 -28 -19 -48 -42 -27 -18 -39 -24 -15 -23 -14 -12 0
-12 -14 -15 -18 -19 -21 -23 -24 -27 -28 -30 -39 -42 -43 -45 -48 -49 -51 -61 -63 -65 0
-21 -19 -18 -15 -14 -12 -65 -63 -51 -45 -30 -61 -49 -43 -28 -48 -42 -27 -39 -24 -23 0
-12 -30 -28 -27 -24 -23 -21 -19 -18 -15 -14 -65 -63 -51 -45 -61 -49 -43 -48 -42 -39 0
-23 -24 -27 -28 -30 -12 -39 -42 -43 -45 -14 -48 -49 -51 -15 -61 -63 -18 -65 -19 -21 0
-23 -14 -45 -43 -42 -39 -12 -30 -28 -27 -24 -21 -19 -18 -15 -65 -63 -51 -61 -49 -48 0
-39 -42 -43 -45 -14 -23 -48 -49 -51 -15 -24 -61 -63 -18 -27 -65 -19 -28 -21 -30 -12 0
-39 -24 -15 -51 -49 -48 -23 -14 -45 -43 -42 -12 -30 -28 -27 -21 -19 -18 -65 -63 -61 0
-48 -49 -51 -15 -24 -39 -61 -63 -18 -27 -42 -65 -19 -28 -43 -21 -30 -45 -12 -14 -23 0
-48 -42 -27 -18 -63 -61 -39 -24 -15 -51 -49 -23 -14 -45 -43 -12 -30 -28 -21 -19 -65 0
-61 -63 -18 -27 -42 -48 -65 -19 -28 -43 -49 -21 -30 -45 -51 -12 -14 -15 -23 -24 -39 0
-61 -49 -43 -28 -19 -65 -48 -42 -27 -18 -63 -39 -24 -15 -51 -23 -14 -45 -12 -30 -21 0
-65 -19 -28 -43 -49 -61 -21 -30 -45 -51 -63 -12 -14 -15 -18 -23 -24 -27 -39 -42 -48 0
-21 -30 -45 -51 -63 -65 -12 -14 -15 -18 -19 -23 -24 -27 -28 -39 -42 -43 -48 -49 -61 0
-65 -63 -51 -45 -30 -21 -61 -49 -43 -28 -19 -48 -42 -27 -18 -39 -24 -15 -23 -14 -12 0
-12 -14 -15 -18 -20 -21 -23 -24 -27 -29 -30 -39 -42 -44 -45 -48 -50 -51 -62 -63 -66 0
-21 -20 -18 -15 -14 -12 -66 -63 -51 -45 -30 -62 -50 -44 -29 -48 -42 -27 -39 -24 -23 0
-12 -30 -29 -27 -24 -23 -21 -20 -18 -15 -14 -66 -63 -51 -45 -62 -50 -44 -48 -42 -39 0
-23 -24 -27 -29 -30 -12 -39 -42 -44 -45 -14 -48 -50 -51 -15 -62 -63 -18 -66 -20 -21 0
-23 -14 -45 -44 -42 -39 -12 -30 -29 -27 -24 -21 -20 -18 -15 -66 -63 -51 -62 -50 -48 0
-39 -42 -44 -45 -14 -23 -48 -50 -51 -15 -24 -62 -63 -18 -27 -66 -20 -29 -21 -30 -12 0
-39 -24 -15 -51 -50 -48 -23 -14 -45 -44 -42 -12 -30 -29 -27 -21 -20 -18 -66 -63 -62 0
-48 -50 -51 -15 -24 -39 -62 -63 -18 -27 -42 -66 -20 -29 -44 -21 -30 -45 -12 -14 -23 0
-48 -42 -27 -18 -63 -62 -39 -24 -15 -51 -50 -23 -14 -45 -44 -12 -30 -29 -21 -20 -66 0
-62 -63 -18 -27 -42 -48 -66 -20 -29 -44 -50 -21 -30 -45 -51 -12 -14 -15 -23 -24 -39 0
-62 -50 -44 -29 -20 -66 -48 -42 -27 -18 -63 -39 -24 -15 -51 -23 -14 -45 -12 -30 -21 0
-66 -20 -29 -44 -50 -62 -21 -30 -45 -51 -63 -12 -14 -15 -18 -23 -24 -27 -39 -42 -48 0
-21 -30 -45 -51 -63 -66 -12 -14 -15 -18 -20 -23 -24 -27 -29 -39 -42 -44 -48 -50 -62 0
-66 -63 -51 -45 -30 -21 -62 -50 -44 -29 -20 -48 -42 -27 -18 -39 -24 -15 -23 -14 -12 0
-12 -14 -15 -19 -20 -21 -23 -24 -28 -29 -30 -39 -43 -44 -45 -49 -50 -51 -64 -65 -66 0
-21 -20 -19 -15 -14 -12 -66 -65 -51 -45 -30 -64 -50 -44 -29 -49 -43 -28 -39 -24 -23 0
-12 -30 -29 -28 -24 -23 -21 -20 -19 -15 -14 -66 -65 -51 -45 -64 -50 -44 -49 -43 -39 0
-23 -24 -28 -29 -30 -12 -39 -43 -44 -45 -14 -49 -50 -51 -15 -64 -65 -19 -66 -20 -21 0
-23 -14 -45 -44 -43 -39 -12 -30 -29 -28 -24 -21 -20 -19 -15 -66 -65 -51 -64 -50 -49 0
-39 -43 -44 -45 -14 -23 -49 -50 -51 -15 -24 -64 -65 -19 -28 -66 -20 -29 -21 -30 -12 0
-39 -24 -15 -51 -50 -49 -23 -14 -45 -44 -43 -12 -30 -29 -28 -21 -20 -19 -66 -65 -64 0
-49 -50 -51 -15 -24 -39 -64 -65 -19 -28 -43 -66 -20 -29 -44 -21 -30 -45 -12 -14 -23 0
-49 -43 -28 -19 -65 -64 -39 -24 -15 -51 -50 -23 -14 -45 -44 -12 -30 -29 -21 -20 -66 0
-64 -65 -19 -28 -43 -49 -66 -20 -29 -44 -50 -21 -30 -45 -51 -12 -14 -15 -23 -24 -39 0
-64 -50 -44 -29 -20 -66 -49 -43 -28 -19 -65 -39 -24 -15 -51 -23 -14 -45 -12 -30 -21 0
-66 -20 -29 -44 -50 -64 -21 -30 -45 -51 -65 -12 -14 -15 -19 -23 -24 -28 -39 -43 -49 0
-21 -30 -45 -51 -65 -66 -12 -14 -15 -19 -20 -23 -24 -28 -29 -39 -43 -44 -49 -50 -64 0
-66 -65 -51 -45 -30 -21 -64 -50 -44 -29 -20 -49 -43 -28 -19 -39 -24 -15 -23 -14 -12 0
-12 -14 -16 -17 -18 -19 -23 -25 -26 -27 -28 -40 -41 -42 -43 -52 -53 -54 -57 -58 -61 0
-19 -18 -17 -16 -14 -12 -61 -58 -54 -43 -28 -57 -53 -42 -27 -52 -41 -26 -40 -25 -23 0
-12 -28 -27 -26 -25 -23 -19 -18 -17 -16 -14 -61 -58 -54 -43 -57 -53 -42 -52 -41 -40 0
-23 -25 -26 -27 -28 -12 -40 -41 -42 -43 -14 -52 -53 -54 -16 -57 -58 -17 -61 -18 -19 0
-23 -14 -43 -42 -41 -40 -12 -28 -27 -26 -25 -19 -18 -17 -16 -61 -58 -54 -57 -53 -52 0
-40 -41 -42 -43 -14 -23 -52 -53 -54 -16 -25 -57 -58 -17 -26 -61 -18 -27 -19 -28 -12 0
-40 -25 -16 -54 -53 -52 -23 -14 -43 -42 -41 -12 -28 -27 -26 -19 -18 -17 -61 -58 -57 0
-52 -53 -54 -16 -25 -40 -57 -58 -17 -26 -41 -61 -18 -27 -42 -19 -28 -43 -12 -14 -23 0
-52 -41 -26 -17 -58 -57 -40 -25 -16 -54 -53 -23 -14 -43 -42 -12 -28 -27 -19 -18 -61 0
-57 -58 -17 -26 -41 -52 -61 -18 -27 -42 -53 -19 -28 -43 -54 -12 -14 -16 -23 -25 -40 0
-57 -53 -42 -27 -18 -61 -52 -41 -26 -17 -58 -40 -25 -16 -54 -23 -14 -43 -12 -28 -19 0
-61 -18 -27 -42 -53 -57 -19 -28 -43 -54 -58 -12 -14 -16 -17 -23 -25 -26 -40 -41 -52 0
-19 -28 -43 -54 -58 -61 -12 -14 -16 -17 -18 -23 -25 -26 -27 -40 -41 -42 -52 -53 -57 0
-61 -58 -54 -43 -28 -19 -57 -53 -42 -27 -18 -52 -41 -26 -17 -40 -25 -16 -23 -14 -12 0
-12 -14 -16 -17 -18 -20 -23 -25 -26 -27 -29 -40 -41 -42 -44 -52 -53 -55 -57 -59 -62 0
-20 -18 -17 -16 -14 -12 -62 -59 -55 -44 -29 -57 -53 -42 -27 -52 -41 -26 -40 -25 -23 0
-12 -29 -27 -26 -25 -23 -20 -18 -17 -16 -14 -62 -59 -55 -44 -57 -53 -42 -52 -41 -40 0
-23 -25 -26 -27 -29 -12 -40 -41 -42 -44 -14 -52 -53 -55 -16 -57 -59 -17 -62 -18 -20 0
-23 -14 -44 -42 -41 -40 -12 -29 -27 -26 -25 -20 -18 -17 -16 -62 -59 -55 -57 -53 -52 0
-40 -41 -42 -44 -14 -23 -52 -53 -55 -16 -25 -57 -59 -17 -26 -62 -18 -27 -20 -29 -12 0
-40 -25 -16 -55 -53 -52 -23 -14 -44 -42 -41 -12 -29 -27 -26 -20 -18 -17 -62 -59 -57 0
-52 -53 -55 -16 -25 -40 -57 -59 -17 -26 -41 -62 -18 -27 -42 -20 -29 -44 -12 -14 -23 0
-52 -41 -26 -17 -59 -57 -40 -25 -16 -55 -53 -23 -14 -44 -42 -12 -29 -27 -20 -18 -62 0
-57 -59 -17 -26 -41 -52 -62 -18 -27 -42 -53 -20 -29 -44 -55 -12 -14 -16 -23 -25 -40 0
-57 -53 -42 -27 -18 -62 -52 -41 -26 -17 -59 -40 -25 -16 -55 -23 -14 -44 -12 -29 -20 0
-62 -18 -27 -42 -53 -57 -20 -29 -44 -55 -59 -12 -14 -16 -17 -23 -25 -26 -40 -41 -52 0
-20 -29 -44 -55 -59 -62 -12 -14 -16 -17 -18 -23 -25 -26 -27 -40 -41 -42 -52 -53 -57 0
-62 -59 -55 -44 -29 -20 -57 -53 -42 -27 -18 -52 -41 -26 -17 -40 -25 -16 -23 -14 -12 0
-12 -14 -16 -17 -18 -21 -23 -25 -26 -27 -30 -40 -41 -42 -45 -52 -53 -56 -57 -60 -63 0
-21 -18 -17 -16 -14 -12 -63 -60 -56 -45 -30 -57 -53 -42 -27 -52 -41 -26 -40 -25 -23 0
-12 -30 -27 -26 -25 -23 -21 -18 -17 -16 -14 -63 -60 -56 -45 -57 -53 -42 -52 -41 -40 0
-23 -25 -26 -27 -30 -12 -40 -41 -42 -45 -14 -52 -53 -56 -16 -57 -60 -17 -63 -18 -21 0
-23 -14 -45 -42 -41 -40 -12 -30 -27 -26 -25 -21 -18 -17 -16 -63 -60 -56 -57 -53 -52 0
-40 -41 -42 -45 -14 -23 -52 -53 -56 -16 -25 -57 -60 -17 -26 -63 -18 -27 -21 -30 -12 0
-40 -25 -16 -56 -53 -52 -23 -14 -45 -42 -41 -12 -30 -27 -26 -21 -18 -17 -63 -60 -57 0
-52 -53 -56 -16 -25 -40 -57 -60 -17 -26 -41 -63 -18 -27 -42 -21 -30 -45 -12 -14 -23 0
-52 -41 -26 -17 -60 -57 -40 -25 -16 -56 -53 -23 -14 -45 -42 -12 -30 -27 -21 -18 -63 0
-57 -60 -17 -26 -41 -52 -63 -18 -27 -42 -53 -21 -30 -45 -56 -12 -14 -16 -23 -25 -40 0
-57 -53 -42 -27 -18 -63 -52 -41 -26 -17 -60 -40 -25 -16 -56 -23 -14 -45 -12 -30 -21 0
-63 -18 -27 -42 -53 -57 -21 -30 -45 -56 -60 -12 -14 -16 -17 -23 -25 -26 -40 -41 -52 0
-21 -30 -45 -56 -60 -63 -12 -14 -16 -17 -18 -23 -25 -26 -27 -40 -41 -42 -52 -53 -57 0
-63 -60 -56 -45 -30 -21 -57 -53 -42 -27 -18 -52 -41 -26 -17 -40 -25 -16 -23 -14 -12 0
-12 -14 -16 -17 -19 -20 -23 -25 -26 -28 -29 -40 -41 -43 -44 -52 -54 -55 -58 -59 -64 0
-20 -19 -17 -16 -14 -12 -64 -59 -55 -44 -29 -58 -54 -43 -28 -52 -41 -26 -40 -25 -23 0
-12 -29 -28 -26 -25 -23 -20 -19 -17 -16 -14 -64 -59 -55 -44 -58 -54 -43 -52 -41 -40 0
-23 -25 -26 -28 -29 -12 -40 -41 -43 -44 -14 -52 -54 -55 -16 -58 -59 -17 -64 -19 -20 0
-23 -14 -44 -43 -41 -40 -12 -29 -28 -26 -25 -20 -19 -17 -16 -64 -59 -55 -58 -54 -52 0
-40 -41 -43 -44 -14 -23 -52 -54 -55 -16 -25 -58 -59 -17 -26 -64 -19 -28 -20 -29 -12 0
-40 -25 -16 -55 -54 -52 -23 -14 -44 -43 -41 -12 -29 -28 -26 -20 -19 -17 -64 -59 -58 0
-52 -54 -55 -16 -25 -40 -58 -59 -17 -26 -41 -64 -19 -28 -43 -20 -29 -44 -12 -14 -23 0
-52 -41 -26 -17 -59 -58 -40 -25 -16 -55 -54 -23 -14 -44 -43 -12 -29 -28 -20 -19 -64 0
-58 -59 -17 -26 -41 -52 -64 -19 -28 -43 -54 -20 -29 -44 -55 -12 -14 -16 -23 -25 -40 0
-58 -54 -43 -28 -19 -64 -52 -41 -26 -17 -59 -40 -25 -16 -55 -23 -14 -44 -12 -29 -20 0
-64 -19 -28 -43 -54 -58 -20 -29 -44 -55 -59 -12 -14 -16 -17 -23 -25 -26 -40 -41 -52 0
-20 -29 -44 -55 -59 -64 -12 -14 -16 -17 -19 -23 -25 -26 -28 -40 -41 -43 -52 -54 -58 0
-64 -59 -55 -44 -29 -20 -58 -54 -43 -28 -19 -52 -41 -26 -17 -40 -25 -16 -23 -14 -12 0
-12 -14 -16 -17 -19 -21 -23 -25 -26 -28 -30 -40 -41 -43 -45 -52 -54 -56 -58 -60 -65 0
-21 -19 -17 -16 -14 -12 -65 -60 -56 -45 -30 -58 -54 -43 -28 -52 -41 -26 -40 -25 -23 0
-12 -30 -28 -26 -25 -23 -21 -19 -17 -16 -14 -65 -60 -56 -45 -58 -54 -43 -52 -41 -40 0
-23 -25 -26 -28 -30 -12 -40 -41 -43 -45 -14 -52 -54 -56 -16 -58 -60 -17 -65 -19 -21 0
-23 -14 -45 -43 -41 -40 -12 -30 -28 -26 -25 -21 -19 -17 -16 -65 -60 -56 -58 -54 -52 0
-40 -41 -43 -45 -14 -23 -52 -54 -56 -16 -25 -58 -60 -17 -26 -65 -19 -28 -21 -30 -12 0
-40 -25 -16 -56 -54 -52 -23 -14 -45 -43 -41 -12 -30 -28 -26 -21 -19 -17 -65 -60 -58 0
-52 -54 -56 -16 -25 -40 -58 -60 -17 -26 -41 -65 -19 -28 -43 -21 -30 -45 -12 -14 -23 0
-52 -41 -26 -17 -60 -58 -40 -25 -16 -56 -54 -23 -14 -45 -43 -12 -30 -28 -21 -19 -65 0
-58 -60 -17 -26 -41 -52 -65 -19 -28 -43 -54 -21 -30 -45 -56 -12 -14 -16 -23 -25 -40 0
-58 -54 -43 -28 -19 -65 -52 -41 -26 -17 -60 -40 -25 -16 -56 -23 -14 -45 -12 -30 -21 0
-65 -19 -28 -43 -54 -58 -21 -30 -45 -56 -60 -12 -14 -16 -17 -23 -25 -26 -40 -41 -52 0
-21 -30 -45 -56 -60 -65 -12 -14 -16 -17 -19 -23 -25 -26 -28 -40 -41 -43 -52 -54 -58 0
-65 -60 -56 -45 -30 -21 -58 -54 -43 -28 -19 -52 -41 -26 -17 -40 -25 -16 -23 -14 -12 0
-12 -14 -16 -17 -20 -21 -23 -25 -26 -29 -30 -40 -41 -44 -45 -52 -55 -56 -59 -60 -66 0
-21 -20 -17 -16 -14 -12 -66 -60 -56 -45 -30 -59 -55 -44 -29 -52 -41 -26 -40 -25 -23 0
-12 -30 -29 -26 -25 -23 -21 -20 -17 -16 -14 -66 -60 -56 -45 -59 -55 -44 -52 -41 -40 0
-23 -25 -26 -29 -30 -12 -40 -41 -44 -45 -14 -52 -55 -56 -16 -59 -60 -17 -66 -20 -21 0
-23 -14 -45 -44 -41 -40 -12 -30 -29 -26 -25 -21 -20 -17 -16 -66 -60 -56 -59 -55 -52 0
-40 -41 -44 -45 -14 -23 -52 -55 -56 -16 -25 -59 -60 -17 -26 -66 -20 -29 -21 -30 -12 0
-40 -25 -16 -56 -55 -52 -23 -14 -45 -44 -41 -12 -30 -29 -26 -21 -20 -17 -66 -60 -59 0
-52 -55 -56 -16 -25 -40 -59 -60 -17 -26 -41 -66 -20 -29 -44 -21 -30 -45 -12 -14 -23 0
-52 -41 -26 -17 -60 -59 -40 -25 -16 -56 -55 -23 -14 -45 -44 -12 -30 -29 -21 -20 -66 0
-59 -60 -17 -26 -41 -52 -66 -20 -29 -44 -55 -21 -30 -45 -56 -12 -14 -16 -23 -25 -40 0
-59 -55 -44 -29 -20 -66 -52 -41 -26 -17 -60 -40 -25 -16 -56 -23 -14 -45 -12 -30 -21 0
-66 -20 -29 -44 -55 -59 -21 -30 -45 -56 -60 -12 -14 -16 -17 -23 -25 -26 -40 -41 -52 0
-21 -30 -45 -56 -60 -66 -12 -14 -16 -17 -20 -23 -25 -26 -29 -40 -41 -44 -52 -55 -59 0
-66 -60 -56 -45 -30 -21 -59 -55 -44 -29 -20 -52 -41 -26 -17 -40 -25 -16 -23 -14 -12 0
-12 -14 -16 -18 -19 -20 -23 -25 -27 -28 -29 -40 -42 -43 -44 -53 -54 -55 -61 -62 -64 0
-20 -19 -18 -16 -14 -12 -64 -62 -55 -44 -29 -61 -54 -43 -28 -53 -42 -27 -40 -25 -23 0
-12 -29 -28 -27 -25 -23 -20 -19 -18 -16 -14 -64 -62 -55 -44 -61 -54 -43 -53 -42 -40 0
-23 -25 -27 -28 -29 -12 -40 -42 -43 -44 -14 -53 -54 -55 -16 -61 -62 -18 -64 -19 -20 0
-23 -14 -44 -43 -42 -40 -12 -29 -28 -27 -25 -20 -19 -18 -16 -64 -62 -55 -61 -54 -53 0
-40 -42 -43 -44 -14 -23 -53 -54 -55 -16 -25 -61 -62 -18 -27 -64 -19 -28 -20 -29 -12 0
-40 -25 -16 -55 -54 -53 -23 -14 -44 -43 -42 -12 -29 -28 -27 -20 -19 -18 -64 -62 -61 0
-53 -54 -55 -16 -25 -40 -61 -62 -18 -27 -42 -64 -19 -28 -43 -20 -29 -44 -12 -14 -23 0
-53 -42 -27 -18 -62 -61 -40 -25 -16 -55 -54 -23 -14 -44 -43 -12 -29 -28 -20 -19 -64 0
-61 -62 -18 -27 -42 -53 -64 -19 -28 -43 -54 -20 -29 -44 -55 -12 -14 -16 -23 -25 -40 0
-61 -54 -43 -28 -19 -64 -53 -42 -27 -18 -62 -40 -25 -16 -55 -23 -14 -44 -12 -29 -20 0
-64 -19 -28 -43 -54 -61 -20 -29 -44 -55 -62 -12 -14 -16 -18 -23 -25 -27 -40 -42 -53 0
-20 -29 -44 -55 -62 -64 -12 -14 -16 -18 -19 -23 -25 -27 -28 -40 -42 -43 -53 -54 -61 0
-64 -62 -55 -44 -29 -20 -61 -54 -43 -28 -19 -53 -42 -27 -18 -40 -25 -16 -23 -14 -12 0
-12 -14 -16 -18 -19 -21 -23 -25 -27 -28 -30 -40 -42 -43 -45 -53 -54 -56 -61 -63 -65 0
-21 -19 -18 -16 -14 -12 -65 -63 -56 -45 -30 -61 -54 -43 -28 -53 -42 -27 -40 -25 -23 0
-12 -30 -28 -27 -25 -23 -21 -19 -18 -16 -14 -65 -63 -56 -45 -61 -54 -43 -53 -42 -40 0
-23 -25 -27 -28 -30 -12 -40 -42 -43 -45 -14 -53 -54 -56 -16 -61 -63 -18 -65 -19 -21 0
-23 -14 -45 -43 -42 -40 -12 -30 -28 -27 -25 -21 -19 -18 -16 -65 -63 -56 -61 -54 -53 0
-40 -42 -43 -45 -14 -23 -53 -54 -56 -16 -25 -61 -63 -18 -27 -65 -19 -28 -21 -30 -12 0
-40 -25 -16 -56 -54 -53 -23 -14 -45 -43 -42 -12 -30 -28 -27 -21 -19 -18 -65 -63 -61 0
-53 -54 -56 -16 -25 -40 -61 -63 -18 -27 -42 -65 -19 -28 -43 -21 -30 -45 -12 -14 -23 0
-53 -42 -27 -18 -63 -61 -40 -25 -16 -56 -54 -23 -14 -45 -43 -12 -30 -28 -21 -19 -65 0
-61 -63 -18 -27 -42 -53 -65 -19 -28 -43 -54 -21 -30 -45 -56 -12 -14 -16 -23 -25 -40 0
-61 -54 -43 -28 -19 -65 -53 -42 -27 -18 -63 -40 -25 -16 -56 -23 -14 -45 -12 -30 -21 0
-65 -19 -28 -43 -54 -61 -21 -30 -45 -56 -63 -12 -14 -16 -18 -23 -25 -27 -40 -42 -53 0
-21 -30 -45 -56 -63 -65 -12 -14 -16 -18 -19 -23 -25 -27 -28 -40 -42 -43 -53 -54 -61 0
-65 -63 -56 -45 -30 -21 -61 -54 -43 -28 -19 -53 -42 -27 -18 -40 -25 -16 -23 -14 -12 0
-12 -14 -16 -18 -20 -21 -23 -25 -27 -29 -30 -40 -42 -44 -45 -53 -55 -56 -62 -63 -66 0
-21 -20 -18 -16 -14 -12 -66 -63 -56 -45 -30 -62 -55 -44 -29 -53 -42 -27 -40 -25 -23 0
-12 -30 -29 -27 -25 -23 -21 -20 -18 -16 -14 -66 -63 -56 -45 -62 -55 -44 -53 -42 -40 0
-23 -25 -27 -29 -30 -12 -40 -42 -44 -45 -14 -53 -55 -56 -16 -62 -63 -18 -66 -20 -21 0
-23 -14 -45 -44 -42 -40 -12 -30 -29 -27 -25 -21 -20 -18 -16 -66 -63 -56 -62 -55 -53 0
-40 -42 -44 -45 -14 -23 -53 -55 -56 -16 -25 -62 -63 -18 -27 -66 -20 -29 -21 -30 -12 0
-40 -25 -16 -56 -55 -53 -23 -14 -45 -44 -42 -12 -30 -29 -27 -21 -20 -18 -66 -63 -62 0
-53 -55 -56 -16 -25 -40 -62 -63 -18 -27 -42 -66 -20 -29 -44 -21 -30 -45 -12 -14 -23 0
-53 -42 -27 -18 -63 -62 -40 -25 -16 -56 -55 -23 -14 -45 -44 -12 -30 -29 -21 -20 -66 0
-62 -63 -18 -27 -42 -53 -66 -20 -29 -44 -55 -21 -30 -45 -56 -12 -14 -16 -23 -25 -40 0
-62 -55 -44 -29 -20 -66 -53 -42 -27 -18 -63 -40 -25 -16 -56 -23 -14 -45 -12 -30 -21 0
-66 -20 -29 -44 -55 -62 -21 -30 -45 -56 -63 -12 -14 -16 -18 -23 -25 -27 -40 -42 -53 0
-21 -30 -45 -56 -63 -66 -12 -14 -16 -18 -20 -23 -25 -27 -29 -40 -42 -44 -53 -55 -62 0
-66 -63 -56 -45 -30 -21 -62 -55 -44 -29 -20 -53 -42 -27 -18 -40 -25 -16 -23 -14 -12 0
-12 -14 -16 -19 -20 -21 -23 -25 -28 -29 -30 -40 -43 -44 -45 -54 -55 -56 -64 -65 -66 0
-21 -20 -19 -16 -14 -12 -66 -65 -56 -45 -30 -64 -55 -44 -29 -54 -43 -28 -40 -25 -23 0
-12 -30 -29 -28 -25 -23 -21 -20 -19 -16 -14 -66 -65 -56 -45 -64 -55 -44 -54 -43 -40 0
-23 -25 -28 -29 -30 -12 -40 -43 -44 -45 -14 -54 -55 -56 -16 -64 -65 -19 -66 -20 -21 0
-23 -14 -45 -44 -43 -40 -12 -30 -29 -28 -25 -21 -20 -19 -16 -66 -65 -56 -64 -55 -54 0
-40 -43 -44 -45 -14 -23 -54 -55 -56 -16 -25 -64 -65 -19 -28 -66 -20 -29 -21 -30 -12 0
-40 -25 -16 -56 -55 -54 -23 -14 -45 -44 -43 -12 -30 -29 -28 -21 -20 -19 -66 -65 -64 0
-54 -55 -56 -16 -25 -40 -64 -65 -19 -28 -43 -66 -20 -29 -44 -21 -30 -45 -12 -14 -23 0
-54 -43 -28 -19 -65 -64 -40 -25 -16 -56 -55 -23 -14 -45 -44 -12 -30 -29 -21 -20 -66 0
-64 -65 -19 -28 -43 -54 -66 -20 -29 -44 -55 -21 -30 -45 -56 -12 -14 -16 -23 -25 -40 0
-64 -55 -44 -29 -20 -66 -54 -43 -28 -19 -65 -40 -25 -16 -56 -23 -14 -45 -12 -30 -21 0
-66 -20 -29 -44 -55 -64 -21 -30 -45 -56 -65 -12 -14 -16 -19 -23 -25 -28 -40 -43 -54 0
-21 -30 -45 -56 -65 -66 -12 -14 -16 -19 -20 -23 -25 -28 -29 -40 -43 -44 -54 -55 -64 0
-66 -65 -56 -45 -30 -21 -64 -55 -44 -29 -20 -54 -43 -28 -19 -40 -25 -16 -23 -14 -12 0
-12 -14 -17 -18 -19 -20 -23 -26 -27 -28 -29 -41 -42 -43 -44 -57 -58 -59 -61 -62 -64 0
-20 -19 -18 -17 -14 -12 -64 -62 -59 -44 -29 -61 -58 -43 -28 -57 -42 -27 -41 -26 -23 0
-12 -29 -28 -27 -26 -23 -20 -19 -18 -17 -14 -64 -62 -59 -44 -61 -58 -43 -57 -42 -41 0
-23 -26 -27 -28 -29 -12 -41 -42 -43 -44 -14 -57 -58 -59 -17 -61 -62 -18 -64 -19 -20 0
-23 -14 -44 -43 -42 -41 -12 -29 -28 -27 -26 -20 -19 -18 -17 -64 -62 -59 -61 -58 -57 0
-41 -42 -43 -44 -14 -23 -57 -58 -59 -17 -26 -61 -62 -18 -27 -64 -19 -28 -20 -29 -12 0
-41 -26 -17 -59 -58 -57 -23 -14 -44 -43 -42 -12 -29 -28 -27 -20 -19 -18 -64 -62 -61 0
-57 -58 -59 -17 -26 -41 -61 -62 -18 -27 -42 -64 -19 -28 -43 -20 -29 -44 -12 -14 -23 0
-57 -42 -27 -18 -62 -61 -41 -26 -17 -59 -58 -23 -14 -44 -43 -12 -29 -28 -20 -19 -64 0
-61 -62 -18 -27 -42 -57 -64 -19 -28 -43 -58 -20 -29 -44 -59 -12 -14 -17 -23 -26 -41 0
-61 -58 -43 -28 -19 -64 -57 -42 -27 -18 -62 -41 -26 -17 -59 -23 -14 -44 -12 -29 -20 0
-64 -19 -28 -43 -58 -61 -20 -29 -44 -59 -62 -12 -14 -17 -18 -23 -26 -27 -41 -42 -57 0
-20 -29 -44 -59 -62 -64 -12 -14 -17 -18 -19 -23 -26 -27 -28 -41 -42 -43 -57 -58 -61 0
-64 -62 -59 -44 -29 -20 -61 -58 -43 -28 -19 -57 -42 -27 -18 -41 -26 -17 -23 -14 -12 0
-12 -14 -17 -18 -19 -21 -23 -26 -27 -28 -30 -41 -42 -43 -45 -57 -58 -60 -61 -63 -65 0
-21 -19 -18 -17 -14 -12 -65 -63 -60 -45 -30 -61 -58 -43 -28 -57 -42 -27 -41 -26 -23 0
-12 -30 -28 -27 -26 -23 -21 -19 -18 -17 -14 -65 -63 -60 -45 -61 -58 -43 -57 -42 -41 0
-23 -26 -27 -28 -30 -12 -41 -42 -43 -45 -14 -57 -58 -60 -17 -61 -63 -18 -65 -19 -21 0
-23 -14 -45 -43 -42 -41 -12 -30 -28 -27 -26 -21 -19 -18 -17 -65 -63 -60 -61 -58 -57 0
-41 -42 -43 -45 -14 -23 -57 -58 -60 -17 -26 -61 -63 -18 -27 -65 -19 -28 -21 -30 -12 0
-41 -26 -17 -60 -58 -57 -23 -14 -45 -43 -42 -12 -30 -28 -27 -21 -19 -18 -65 -63 -61 0
-57 -58 -60 -17 -26 -41 -61 -63 -18 -27 -42 -65 -19 -28 -43 -21 -30 -45 -12 -14 -23 0
-57 -42 -27 -18 -63 -61 -41 -26 -17 -60 -58 -23 -14 -45 -43 -12 -30 -28 -21 -19 -65 0
-61 -63 -18 -27 -42 -57 -65 -19 -28 -43 -58 -21 -30 -45 -60 -12 -14 -17 -23 -26 -41 0
-61 -58 -43 -28 -19 -65 -57 -42 -27 -18 -63 -41 -26 -17 -60 -23 -14 -45 -12 -30 -21 0
-65 -19 -28 -43 -58 -61 -21 -30 -45 -60 -63 -12 -14 -17 -18 -23 -26 -27 -41 -42 -57 0
-21 -30 -45 -60 -63 -65 -12 -14 -17 -18 -19 -23 -26 -27 -28 -41 -42 -43 -57 -58 -61 0
-65 -63 -60 -45 -30 -21 -61 -58 -43 -28 -19 -57 -42 -27 -18 -41 -26 -17 -23 -14 -12 0
-12 -14 -17 -18 -20 -21 -23 -26 -27 -29 -30 -41 -42 -44 -45 -57 -59 -60 -62 -63 -66 0
-21 -20 -18 -17 -14 -12 -66 -63 -60 -45 -30 -62 -59 -44 -29 -57 -42 -27 -41 -26 -23 0
-12 -30 -29 -27 -26 -23 -21 -20 -18 -17 -14 -66 -63 -60 -45 -62 -59 -44 -57 -42 -41 0
-23 -26 -27 -29 -30 -12 -41 -42 -44 -45 -14 -57 -59 -60 -17 -62 -63 -18 -66 -20 -21 0
-23 -14 -45 -44 -42 -41 -12 -30 -29 -27 -26 -21 -20 -18 -17 -66 -63 -60 -62 -59 -57 0
-41 -42 -44 -45 -14 -23 -57 -59 -60 -17 -26 -62 -63 -18 -27 -66 -20 -29 -21 -30 -12 0
-41 -26 -17 -60 -59 -57 -23 -14 -45 -44 -42 -12 -30 -29 -27 -21 -20 -18 -66 -63 -62 0
-57 -59 -60 -17 -26 -41 -62 -63 -18 -27 -42 -66 -20 -29 -44 -21 -30 -45 -12 -14 -23 0
-57 -42 -27 -18 -63 -62 -41 -26 -17 -60 -59 -23 -14 -45 -44 -12 -30 -29 -21 -20 -66 0
-62 -63 -18 -27 -42 -57 -66 -20 -29 -44 -59 -21 -30 -45 -60 -12 -14 -17 -23 -26 -41 0
-62 -59 -44 -29 -20 -66 -57 -42 -27 -18 -63 -41 -26 -17 -60 -23 -14 -45 -12 -30 -21 0
-66 -20 -29 -44 -59 -62 -21 -30 -45 -60 -63 -12 -14 -17 -18 -23 -26 -27 -41 -42 -57 0
-21 -30 -45 -60 -63 -66 -12 -14 -17 -18 -20 -23 -26 -27 -29 -41 -42 -44 -57 -59 -62 0
-66 -63 -60 -45 -30 -21 -62 -59 -44 -29 -20 -57 -42 -27 -18 -41 -26 -17 -23 -14 -12 0
-12 -14 -17 -19 -20 -21 -23 -26 -28 -29 -30 -41 -43 -44 -45 -58 -59 -60 -64 -65 -66 0
-21 -20 -19 -17 -14 -12 -66 -65 -60 -45 -30 -64 -59 -44 -29 -58 -43 -28 -41 -26 -23 0
-12 -30 -29 -28 -26 -23 -21 -20 -19 -17 -14 -66 -65 -60 -45 -64 -59 -44 -58 -43 -41 0
-23 -26 -28 -29 -30 -12 -41 -43 -44 -45 -14 -58 -59 -60 -17 -64 -65 -19 -66 -20 -21 0
-23 -14 -45 -44 -43 -41 -12 -30 -29 -28 -26 -21 -20 -19 -17 -66 -65 -60 -64 -59 -58 0
-41 -43 -44 -45 -14 -23 -58 -59 -60 -17 -26 -64 -65 -19 -28 -66 -20 -29 -21 -30 -12 0
-41 -26 -17 -60 -59 -58 -23 -14 -45 -44 -43 -12 -30 -29 -28 -21 -20 -19 -66 -65 -64 0
-58 -59 -60 -17 -26 -41 -64 -65 -19 -28 -43 -66 -20 -29 -44 -21 -30 -45 -12 -14 -23 0
-58 -43 -28 -19 -65 -64 -41 -26 -17 -60 -59 -23 -14 -45 -44 -12 -30 -29 -21 -20 -66 0
-64 -65 -19 -28 -43 -58 -66 -20 -29 -44 -59 -21 -30 -45 -60 -12 -14 -17 -23 -26 -41 0
-64 -59 -44 -29 -20 -66 -58 -43 -28 -19 -65 -41 -26 -17 -60 -23 -14 -45 -12 -30 -21 0
-66 -20 -29 -44 -59 -64 -21 -30 -45 -60 -65 -12 -14 -17 -19 -23 -26 -28 -41 -43 -58 0
-21 -30 -45 -60 -65 -66 -12 -14 -17 -19 -20 -23 -26 -28 -29 -41 -43 -44 -58 -59 -64 0
-66 -65 -60 -45 -30 -21 -64 -59 -44 -29 -20 -58 -43 -28 -19 -41 -26 -17 -23 -14 -12 0
-12 -14 -18 -19 -20 -21 -23 -27 -28 -29 -30 -42 -43 -44 -45 -61 -62 -63 -64 -65 -66 0
-21 -20 -19 -18 -14 -12 -66 -65 -63 -45 -30 -64 -62 -44 -29 -61 -43 -28 -42 -27 -23 0
-12 -30 -29 -28 -27 -23 -21 -20 -19 -18 -14 -66 -65 -63 -45 -64 -62 -44 -61 -43 -42 0
-23 -27 -28 -29 -30 -12 -42 -43 -44 -45 -14 -61 -62 -63 -18 -64 -65 -19 -66 -20 -21 0
-23 -14 -45 -44 -43 -42 -12 -30 -29 -28 -27 -21 -20 -19 -18 -66 -65 -63 -64 -62 -61 0
-42 -43 -44 -45 -14 -23 -61 -62 -63 -18 -27 -64 -65 -19 -28 -66 -20 -29 -21 -30 -12 0
-42 -27 -18 -63 -62 -61 -23 -14 -45 -44 -43 -12 -30 -29 -28 -21 -20 -19 -66 -65 -64 0
-61 -62 -63 -18 -27 -42 -64 -65 -19 -28 -43 -66 -20 -29 -44 -21 -30 -45 -12 -14 -23 0
-61 -43 -28 -19 -65 -64 -42 -27 -18 -63 -62 -23 -14 -45 -44 -12 -30 -29 -21 -20 -66 0
-64 -65 -19 -28 -43 -61 -66 -20 -29 -44 -62 -21 -30 -45 -63 -12 -14 -18 -23 -27 -42 0
-64 -62 -44 -29 -20 -66 -61 -43 -28 -19 -65 -42 -27 -18 -63 -23 -14 -45 -12 -30 -21 0
-66 -20 -29 -44 -62 -64 -21 -30 -45 -63 -65 -12 -14 -18 -19 -23 -27 -28 -42 -43 -61 0
-21 -30 -45 -63 -65 -66 -12 -14 -18 -19 -20 -23 -27 -28 -29 -42 -43 -44 -61 -62 -64 0
-66 -65 -63 -45 -30 -21 -64 -62 -44 -29 -20 -61 -43 -28 -19 -42 -27 -18 -23 -14 -12 0
-12 -15 -16 -17 -18 -19 -24 -25 -26 -27 -28 -46 -47 -48 -49 -52 -53 -54 -57 -58 -61 0
-19 -18 -17 -16 -15 -12 -61 -58 -54 -49 -28 -57 -53 -48 -27 -52 -47 -26 -46 -25 -24 0
-12 -28 -27 -26 -25 -24 -19 -18 -17 -16 -15 -61 -58 -54 -49 -57 -53 -48 -52 -47 -46 0
-24 -25 -26 -27 -28 -12 -46 -47 -48 -49 -15 -52 -53 -54 -16 -57 -58 -17 -61 -18 -19 0
-24 -15 -49 -48 -47 -46 -12 -28 -27 -26 -25 -19 -18 -17 -16 -61 -58 -54 -57 -53 -52 0
-46 -47 -48 -49 -15 -24 -52 -53 -54 -16 -25 -57 -58 -17 -26 -61 -18 -27 -19 -28 -12 0
-46 -25 -16 -54 -53 -52 -24 -15 -49 -48 -47 -12 -28 -27 -26 -19 -18 -17 -61 -58 -57 0
-52 -53 -54 -16 -25 -46 -57 -58 -17 -26 -47 -61 -18 -27 -48 -19 -28 -49 -12 -15 -24 0
-52 -47 -26 -17 -58 -57 -46 -25 -16 -54 -53 -24 -15 -49 -48 -12 -28 -27 -19 -18 -61 0
-57 -58 -17 -26 -47 -52 -61 -18 -27 -48 -53 -19 -28 -49 -54 -12 -15 -16 -24 -25 -46 0
-57 -53 -48 -27 -18 -61 -52 -47 -26 -17 -58 -46 -25 -16 -54 -24 -15 -49 -12 -28 -19 0
-61 -18 -27 -48 -53 -57 -19 -28 -49 -54 -58 -12 -15 -16 -17 -24 -25 -26 -46 -47 -52 0
-19 -28 -49 -54 -58 -61 -12 -15 -16 -17 -18 -24 -25 -26 -27 -46 -47 -48 -52 -53 -57 0
-61 -58 -54 -49 -28 -19 -57 -53 -48 -27 -18 -52 -47 -26 -17 -46 -25 -16 -24 -15 -12 0
-12 -15 -16 -17 -18 -20 -24 -25 -26 -27 -29 -46 -47 -48 -50 -52 -53 -55 -57 -59 -62 0
-20 -18 -17 -16 -15 -12 -62 -59 -55 -50 -29 -57 -53 -48 -27 -52 -47 -26 -46 -25 -24 0
-12 -29 -27 -26 -25 -24 -20 -18 -17 -16 -15 -62 -59 -55 -50 -57 -53 -48 -52 -47 -46 0
-24 -25 -26 -27 -29 -12 -46 -47 -48 -50 -15 -52 -53 -55 -16 -57 -59 -17 -62 -18 -20 0
-24 -15 -50 -48 -47 -46 -12 -29 -27 -26 -25 -20 -18 -17 -16 -62 -59 -55 -57 -53 -52 0
-46 -47 -48 -50 -15 -24 -52 -53 -55 -16 -25 -57 -59 -17 -26 -62 -18 -27 -20 -29 -12 0
-46 -25 -16 -55 -53 -52 -24 -15 -50 -48 -47 -12 -29 -27 -26 -20 -18 -17 -62 -59 -57 0
-52 -53 -55 -16 -25 -46 -57 -59 -17 -26 -47 -62 -18 -27 -48 -20 -29 -50 -12 -15 -24 0
-52 -47 -26 -17 -59 -57 -46 -25 -16 -55 -53 -24 -15 -50 -48 -12 -29 -27 -20 -18 -62 0
-57 -59 -17 -26 -47 -52 -62 -18 -27 -48 -53 -20 -29 -50 -55 -12 -15 -16 -24 -25 -46 0
-57 -53 -48 -27 -18 -62 -52 -47 -26 -17 -59 -46 -25 -16 -55 -24 -15 -50 -12 -29 -20 0
-62 -18 -27 -48 -53 -57 -20 -29 -50 -55 -59 -12 -15 -16 -17 -24 -25 -26 -46 -47 -52 0
-20 -29 -50 -55 -59 -62 -12 -15 -16 -17 -18 -24 -25 -26 -27 -46 -47 -48 -52 -53 -57 0
-62 -59 -55 -50 -29 -20 -57 -53 -48 -27 -18 -52 -47 -26 -17 -46 -25 -16 -24 -15 -12 0
-12 -15 -16 -17 -18 -21 -24 -25 -26 -27 -30 -46 -47 -48 -51 -52 -53 -56 -57 -60 -63 0
-21 -18 -17 -16 -15 -12 -63 -60 -56 -51 -30 -57 -53 -48 -27 -52 -47 -26 -46 -25 -24 0
-12 -30 -27 -26 -25 -24 -21 -18 -17 -16 -15 -63 -60 -56 -51 -57 -53 -48 -52 -47 -46 0
-24 -25 -26 -27 -30 -12 -46 -47 -48 -51 -15 -52 -53 -56 -16 -57 -60 -17 -63 -18 -21 0
-24 -15 -51 -48 -47 -46 -12 -30 -27 -26 -25 -21 -18 -17 -16 -63 -60 -56 -57 -53 -52 0
-46 -47 -48 -51 -15 -24 -52 -53 -56 -16 -25 -57 -60 -17 -26 -63 -18 -27 -21 -30 -12 0
-46 -25 -16 -56 -53 -52 -24 -15 -51 -48 -47 -12 -30 -27 -26 -21 -18 -17 -63 -60 -57 0
-52 -53 -56 -16 -25 -46 -57 -60 -17 -26 -47 -63 -18 -27 -48 -21 -30 -51 -12 -15 -24 0
-52 -47 -26 -17 -60 -57 -46 -25 -16 -56 -53 -24 -15 -51 -48 -12 -30 -27 -21 -18 -63 0
-57 -60 -17 -26 -47 -52 -63 -18 -27 -48 -53 -21 -30 -51 -56 -12 -15 -16 -24 -25 -46 0
-57 -53 -48 -27 -18 -63 -52 -47 -26 -17 -60 -46 -25 -16 -56 -24 -15 -51 -12 -30 -21 0
-63 -18 -27 -48 -53 -57 -21 -30 -51 -56 -60 -12 -15 -16 -17 -24 -25 -26 -46 -47 -52 0
-21 -30 -51 -56 -60 -63 -12 -15 -16 -17 -18 -24 -25 -26 -27 -46 -47 -48 -52 -53 -57 0
-63 -60 -56 -51 -30 -21 -57 -53 -48 -27 -18 -52 -47 -26 -17 -46 -25 -16 -24 -15 -12 0
-12 -15 -16 -17 -19 -20 -24 -25 -26 -28 -29 -46 -47 -49 -50 -52 -54 -55 -58 -59 -64 0
-20 -19 -17 -16 -15 -12 -64 -59 -55 -50 -29 -58 -54 -49 -28 -52 -47 -26 -46 -25 -24 0
-12 -29 -28 -26 -25 -24 -20 -19 -17 -16 -15 -64 -59 -55 -50 -58 -54 -49 -52 -47 -46 0
-24 -25 -26 -28 -29 -12 -46 -47 -49 -50 -15 -52 -54 -55 -16 -58 -59 -17 -64 -19 -20 0
-24 -15 -50 -49 -47 -46 -12 -29 -28 -26 -25 -20 -19 -17 -16 -64 -59 -55 -58 -54 -52 0
-46 -47 -49 -50 -15 -24 -52 -54 -55 -16 -25 -58 -59 -17 -26 -64 -19 -28 -20 -29 -12 0
-46 -25 -16 -55 -54 -52 -24 -15 -50 -49 -47 -12 -29 -28 -26 -20 -19 -17 -64 -59 -58 0
-52 -54 -55 -16 -25 -46 -58 -59 -17 -26 -47 -64 -19 -28 -49 -20 -29 -50 -12 -15 -24 0
-52 -47 -26 -17 -59 -58 -46 -25 -16 -55 -54 -24 -15 -50 -49 -12 -29 -28 -20 -19 -64 0
-58 -59 -17 -26 -47 -52 -64 -19 -28 -49 -54 -20 -29 -50 -55 -12 -15 -16 -24 -25 -46 0
-58 -54 -49 -28 -19 -64 -52 -47 -26 -17 -59 -46 -25 -16 -55 -24 -15 -50 -12 -29 -20 0
-64 -19 -28 -49 -54 -58 -20 -29 -50 -55 -59 -12 -15 -16 -17 -24 -25 -26 -46 -47 -52 0
-20 -29 -50 -55 -59 -64 -12 -15 -16 -17 -19 -24 -25 -26 -28 -46 -47 -49 -52 -54 -58 0
-64 -59 -55 -50 -29 -20 -58 -54 -49 -28 -19 -52 -47 -26 -17 -46 -25 -16 -24 -15 -12 0
-12 -15 -16 -17 -19 -21 -24 -25 -26 -28 -30 -46 -47 -49 -51 -52 -54 -56 -58 -60 -65 0
-21 -19 -17 -16 -15 -12 -65 -60 -56 -51 -30 -58 -54 -49 -28 -52 -47 -26 -46 -25 -24 0
-12 -30 -28 -26 -25 -24 -21 -19 -17 -16 -15 -65 -60 -56 -51 -58 -54 -49 -52 -47 -46 0
-24 -25 -26 -28 -30 -12 -46 -47 -49 -51 -15 -52 -54 -56 -16 -58 -60 -17 -65 -19 -21 0
-24 -15 -51 -49 -47 -46 -12 -30 -28 -26 -25 -21 -19 -17 -16 -65 -60 -56 -58 -54 -52 0
-46 -47 -49 -51 -15 -24 -52 -54 -56 -16 -25 -58 -60 -17 -26 -65 -19 -28 -21 -30 -12 0
-46 -25 -16 -56 -54 -52 -24 -15 -51 -49 -47 -12 -30 -28 -26 -21 -19 -17 -65 -60 -58 0
-52 -54 -56 -16 -25 -46 -58 -60 -17 -26 -47 -65 -19 -28 -49 -21 -30 -51 -12 -15 -24 0
-52 -47 -26 -17 -60 -58 -46 -25 -16 -56 -54 -24 -15 -51 -49 -12 -30 -28 -21 -19 -65 0
-58 -60 -17 -26 -47 -52 -65 -19 -28 -49 -54 -21 -30 -51 -56 -12 -15 -16 -24 -25 -46 0
-58 -54 -49 -28 -19 -65 -52 -47 -26 -17 -60 -46 -25 -16 -56 -24 -15 -51 -12 -30 -21 0
-65 -19 -28 -49 -54 -58 -21 -30 -51 -56 -60 -12 -15 -16 -17 -24 -25 -26 -46 -47 -52 0
-21 -30 -51 -56 -60 -65 -12 -15 -16 -17 -19 -24 -25 -26 -28 -46 -47 -49 -52 -54 -58 0
-65 -60 -56 -51 -30 -21 -58 -54 -49 -28 -19 -52 -47 -26 -17 -46 -25 -16 -24 -15 -12 0
-12 -15 -16 -17 -20 -21 -24 -25 -26 -29 -30 -46 -47 -50 -51 -52 -55 -56 -59 -60 -66 0
-21 -20 -17 -16 -15 -12 -66 -60 -56 -51 -30 -59 -55 -50 -29 -52 -47 -26 -46 -25 -24 0
-12 -30 -29 -26 -25 -24 -21 -20 -17 -16 -15 -66 -60 -56 -51 -59 -55 -50 -52 -47 -46 0
-24 -25 -26 -29 -30 -12 -46 -47 -50 -51 -15 -52 -55 -56 -16 -59 -60 -17 -66 -20 -21 0
-24 -15 -51 -50 -47 -46 -12 -30 -29 -26 -25 -21 -20 -17 -16 -66 -60 -56 -59 -55 -52 0
-46 -47 -50 -51 -15 -24 -52 -55 -56 -16 -25 -59 -60 -17 -26 -66 -20 -29 -21 -30 -12 0
-46 -25 -16 -56 -55 -52 -24 -15 -51 -50 -47 -12 -30 -29 -26 -21 -20 -17 -66 -60 -59 0
-52 -55 -56 -16 -25 -46 -59 -60 -17 -26 -47 -66 -20 -29 -50 -21 -30 -51 -12 -15 -24 0
-52 -47 -26 -17 -60 -59 -46 -25 -16 -56 -55 -24 -15 -51 -50 -12 -30 -29 -21 -20 -66 0
-59 -60 -17 -26 -47 -52 -66 -20 -29 -50 -55 -21 -30 -51 -56 -12 -15 -16 -24 -25 -46 0
-59 -55 -50 -29 -20 -66 -52 -47 -26 -17 -60 -46 -25 -16 -56 -24 -15 -51 -12 -30 -21 0
-66 -20 -29 -50 -55 -59 -21 -30 -51 -56 -60 -12 -15 -16 -17 -24 -25 -26 -46 -47 -52 0
-21 -30 -51 -56 -60 -66 -12 -15 -16 -17 -20 -24 -25 -26 -29 -46 -47 -50 -52 -55 -59 0
-66 -60 -56 -51 -30 -21 -59 -55 -50 -29 -20 -52 -47 -26 -17 -46 -25 -16 -24 -15 -12 0
-12 -15 -16 -18 -19 -20 -24 -25 -27 -28 -29 -46 -48 -49 -50 -53 -54 -55 -61 -62 -64 0
-20 -19 -18 -16 -15 -12 -64 -62 -55 -50 -29 -61 -54 -49 -28 -53 -48 -27 -46 -25 -24 0
-12 -29 -28 -27 -25 -24 -20 -19 -18 -16 -15 -64 -62 -55 -50 -61 -54 -49 -53 -48 -46 0
-24 -25 -27 -28 -29 -12 -46 -48 -49 -50 -15 -53 -54 -55 -16 -61 -62 -18 -64 -19 -20 0
-24 -15 -50 -49 -48 -46 -12 -29 -28 -27 -25 -20 -19 -18 -16 -64 -62 -55 -61 -54 -53 0
-46 -48 -49 -50 -15 -24 -53 -54 -55 -16 -25 -61 -62 -18 -27 -64 -19 -28 -20 -29 -12 0
-46 -25 -16 -55 -54 -53 -24 -15 -50 -49 -48 -12 -29 -28 -27 -20 -19 -18 -64 -62 -61 0
-53 -54 -55 -16 -25 -46 -61 -62 -18 -27 -48 -64 -19 -28 -49 -20 -29 -50 -12 -15 -24 0
-53 -48 -27 -18 -62 -61 -46 -25 -16 -55 -54 -24 -15 -50 -49 -12 -29 -28 -20 -19 -64 0
-61 -62 -18 -27 -48 -53 -64 -19 -28 -49 -54 -20 -29 -50 -55 -12 -15 -16 -24 -25 -46 0
-61 -54 -49 -28 -19 -64 -53 -48 -27 -18 -62 -46 -25 -16 -55 -24 -15 -50 -12 -29 -20 0
-64 -19 -28 -49 -54 -61 -20 -29 -50 -55 -62 -12 -15 -16 -18 -24 -25 -27 -46 -48 -53 0
-20 -29 -50 -55 -62 -64 -12 -15 -16 -18 -19 -24 -25 -27 -28 -46 -48 -49 -53 -54 -61 0
-64 -62 -55 -50 -29 -20 -61 -54 -49 -28 -19 -53 -48 -27 -18 -46 -25 -16 -24 -15 -12 0
-12 -15 -16 -18 -19 -21 -24 -25 -27 -28 -30 -46 -48 -49 -51 -53 -54 -56 -61 -63 -65 0
-21 -19 -18 -16 -15 -12 -65 -63 -56 -51 -30 -61 -54 -49 -28 -53 -48 -27 -46 -25 -24 0
-12 -30 -28 -27 -25 -24 -21 -19 -18 -16 -15 -65 -63 -56 -51 -61 -54 -49 -53 -48 -46 0
-24 -25 -27 -28 -30 -12 -46 -48 -49 -51 -15 -53 -54 -56 -16 -61 -63 -18 -65 -19 -21 0
-24 -15 -51 -49 -48 -46 -12 -30 -28 -27 -25 -21 -19 -18 -16 -65 -63 -56 -61 -54 -53 0
-46 -48 -49 -51 -15 -24 -53 -54 -56 -16 -25 -61 -63 -18 -27 -65 -19 -28 -21 -30 -12 0
-46 -25 -16 -56 -54 -53 -24 -15 -51 -49 -48 -12 -30 -28 -27 -21 -19 -18 -65 -63 -61 0
-53 -54 -56 -16 -25 -46 -61 -63 -18 -27 -48 -65 -19 -28 -49 -21 -30 -51 -12 -15 -24 0
-53 -48 -27 -18 -63 -61 -46 -25 -16 -56 -54 -24 -15 -51 -49 -12 -30 -28 -21 -19 -65 0
-61 -63 -18 -27 -48 -53 -65 -19 -28 -49 -54 -21 -30 -51 -56 -12 -15 -16 -24 -25 -46 0
-61 -54 -49 -28 -19 -65 -53 -48 -27 -18 -63 -46 -25 -16 -56 -24 -15 -51 -12 -30 -21 0
-65 -19 -28 -49 -54 -61 -21 -30 -51 -56 -63 -12 -15 -16 -18 -24 -25 -27 -46 -48 -53 0
-21 -30 -51 -56 -63 -65 -12 -15 -16 -18 -19 -24 -25 -27 -28 -46 -48 -49 -53 -54 -61 0
-65 -63 -56 -51 -30 -21 -61 -54 -49 -28 -19 -53 -48 -27 -18 -46 -25 -16 -24 -15 -12 0
-12 -15 -16 -18 -20 -21 -24 -25 -27 -29 -30 -46 -48 -50 -51 -53 -55 -56 -62 -63 -66 0
-21 -20 -18 -16 -15 -12 -66 -63 -56 -51 -30 -62 -55 -50 -29 -53 -48 -27 -46 -25 -24 0
-12 -30 -29 -27 -25 -24 -21 -20 -18 -16 -15 -66 -63 -56 -51 -62 -55 -50 -53 -48 -46 0
-24 -25 -27 -29 -30 -12 -46 -48 -50 -51 -15 -53 -55 -56 -16 -62 -63 -18 -66 -20 -21 0
-24 -15 -51 -50 -48 -46 -12 -30 -29 -27 -25 -21 -20 -18 -16 -66 -63 -56 -62 -55 -53 0
-46 -48 -50 -51 -15 -24 -53 -55 -56 -16 -25 -62 -63 -18 -27 -66 -20 -29 -21 -30 -12 0
-46 -25 -16 -56 -55 -53 -24 -15 -51 -50 -48 -12 -30 -29 -27 -21 -20 -18 -66 -63 -62 0
-53 -55 -56 -16 -25 -46 -62 -63 -18 -27 -48 -66 -20 -29 -50 -21 -30 -51 -12 -15 -24 0
-53 -48 -27 -18 -63 -62 -46 -25 -16 -56 -55 -24 -15 -51 -50 -12 -30 -29 -21 -20 -66 0
-62 -63 -18 -27 -48 -53 -66 -20 -29 -50 -55 -21 -30 -51 -56 -12 -15 -16 -24 -25 -46 0
-62 -55 -50 -29 -20 -66 -53 -48 -27 -18 -63 -46 -25 -16 -56 -24 -15 -51 -12 -30 -21 0
-66 -20 -29 -50 -55 -62 -21 -30 -51 -56 -63 -12 -15 -16 -18 -24 -25 -27 -46 -48 -53 0
-21 -30 -51 -56 -63 -66 -12 -15 -16 -18 -20 -24 -25 -27 -29 -46 -48 -50 -53 -55 -62 0
-66 -63 -56 -51 -30 -21 -62 -55 -50 -29 -20 -53 -48 -27 -18 -46 -25 -16 -24 -15 -12 0
-12 -15 -16 -19 -20 -21 -24 -25 -28 -29 -30 -46 -49 -50 -51 -54 -55 -56 -64 -65 -66 0
-21 -20 -19 -16 -15 -12 -66 -65 -56 -51 -30 -64 -55 -50 -29 -54 -49 -28 -46 -25 -24 0
-12 -30 -29 -28 -25 -24 -21 -20 -19 -16 -15 -66 -65 -56 -51 -64 -55 -50 -54 -49 -46 0
-24 -25 -28 -29 -30 -12 -46 -49 -50 -51 -15 -54 -55 -56 -16 -64 -65 -19 -66 -20 -21 0
-24 -15 -51 -50 -49 -46 -12 -30 -29 -28 -25 -21 -20 -19 -16 -66 -65 -56 -64 -55 -54 0
-46 -49 -50 -51 -15 -24 -54 -55 -56 -16 -25 -64 -65 -19 -28 -66 -20 -29 -21 -30 -12 0
-46 -25 -16 -56 -55 -54 -24 -15 -51 -50 -49 -12 -30 -29 -28 -21 -20 -19 -66 -65 -64 0
-54 -55 -56 -16 -25 -46 -64 -65 -19 -28 -49 -66 -20 -29 -50 -21 -30 -51 -12 -15 -24 0
-54 -49 -28 -19 -65 -64 -46 -25 -16 -56 -55 -24 -15 -51 -50 -12 -30 -29 -21 -20 -66 0
-64 -65 -19 -28 -49 -54 -66 -20 -29 -50 -55 -21 -30 -51 -56 -12 -15 -16 -24 -25 -46 0
-64 -55 -50 -29 -20 -66 -54 -49 -28 -19 -65 -46 -25 -16 -56 -24 -15 -51 -12 -30 -21 0
-66 -20 -29 -50 -55 -64 -21 -30 -51 -56 -65 -12 -15 -16 -19 -24 -25 -28 -46 -49 -54 0
-21 -30 -51 -56 -65 -66 -12 -15 -16 -19 -20 -24 -25 -28 -29 -46 -49 -50 -54 -55 -64 0
-66 -65 -56 -51 -30 -21 -64 -55 -50 -29 -20 -54 -49 -28 -19 -46 -25 -16 -24 -15 -12 0
-12 -15 -17 -18 -19 -20 -24 -26 -27 -28 -29 -47 -48 -49 -50 -57 -58 -59 -61 -62 -64 0
-20 -19 -18 -17 -15 -12 -64 -62 -59 -50 -29 -61 -58 -49 -28 -57 -48 -27 -47 -26 -24 0
-12 -29 -28 -27 -26 -24 -20 -19 -18 -17 -15 -64 -62 -59 -50 -61 -58 -49 -57 -48 -47 0
-24 -26 -27 -28 -29 -12 -47 -48 -49 -50 -15 -57 -58 -59 -17 -61 -62 -18 -64 -19 -20 0
-24 -15 -50 -49 -48 -47 -12 -29 -28 -27 -26 -20 -19 -18 -17 -64 -62 -59 -61 -58 -57 0
-47 -48 -49 -50 -15 -24 -57 -58 -59 -17 -26 -61 -62 -18 -27 -64 -19 -28 -20 -29 -12 0
-47 -26 -17 -59 -58 -57 -24 -15 -50 -49 -48 -12 -29 -28 -27 -20 -19 -18 -64 -62 -61 0
-57 -58 -59 -17 -26 -47 -61 -62 -18 -27 -48 -64 -19 -28 -49 -20 -29 -50 -12 -15 -24 0
-57 -48 -27 -18 -62 -61 -47 -26 -17 -59 -58 -24 -15 -50 -49 -12 -29 -28 -20 -19 -64 0
-61 -62 -18 -27 -48 -57 -64 -19 -28 -49 -58 -20 -29 -50 -59 -12 -15 -17 -24 -26 -47 0
-61 -58 -49 -28 -19 -64 -57 -48 -27 -18 -62 -47 -26 -17 -59 -24 -15 -50 -12 -29 -20 0
-64 -19 -28 -49 -58 -61 -20 -29 -50 -59 -62 -12 -15 -17 -18 -24 -26 -27 -47 -48 -57 0
-20 -29 -50 -59 -62 -64 -12 -15 -17 -18 -19 -24 -26 -27 -28 -47 -48 -49 -57 -58 -61 0
-64 -62 -59 -50 -29 -20 -61 -58 -49 -28 -19 -57 -48 -27 -18 -47 -26 -17 -24 -15 -12 0
-12 -15 -17 -18 -19 -21 -24 -26 -27 -28 -30 -47 -48 -49 -51 -57 -58 -60 -61 -63 -65 0
-21 -19 -18 -17 -15 -12 -65 -63 -60 -51 -30 -61 -58 -49 -28 -57 -48 -27 -47 -26 -24 0
-12 -30 -28 -27 -26 -24 -21 -19 -18 -17 -15 -65 -63 -60 -51 -61 -58 -49 -57 -48 -47 0
-24 -26 -27 -28 -30 -12 -47 -48 -49 -51 -15 -57 -58 -60 -17 -61 -63 -18 -65 -19 -21 0
-24 -15 -51 -49 -48 -47 -12 -30 -28 -27 -26 -21 -19 -18 -17 -65 -63 -60 -61 -58 -57 0
-47 -48 -49 -51 -15 -24 -57 -58 -60 -17 -26 -61 -63 -18 -27 -65 -19 -28 -21 -30 -12 0
-47 -26 -17 -60 -58 -57 -24 -15 -51 -49 -48 -12 -30 -28 -27 -21 -19 -18 -65 -63 -61 0
-57 -58 -60 -17 -26 -47 -61 -63 -18 -27 -48 -65 -19 -28 -49 -21 -30 -51 -12 -15 -24 0
-57 -48 -27 -18 -63 -61 -47 -26 -17 -60 -58 -24 -15 -51 -49 -12 -30 -28 -21 -19 -65 0
-61 -63 -18 -27 -48 -57 -65 -19 -28 -49 -58 -21 -30 -51 -60 -12 -15 -17 -24 -26 -47 0
-61 -58 -49 -28 -19 -65 -57 -48 -27 -18 -63 -47 -26 -17 -60 -24 -15 -51 -12 -30 -21 0
-65 -19 -28 -49 -58 -61 -21 -30 -51 -60 -63 -12 -15 -17 -18 -24 -26 -27 -47 -48 -57 0
-21 -30 -51 -60 -63 -65 -12 -15 -17 -18 -19 -24 -26 -27 -28 -47 -48 -49 -57 -58 -61 0
-65 -63 -60 -51 -30 -21 -61 -58 -49 -28 -19 -57 -48 -27 -18 -47 -26 -17 -24 -15 -12 0
-12 -15 -17 -18 -20 -21 -24 -26 -27 -29 -30 -47 -48 -50 -51 -57 -59 -60 -62 -63 -66 0
-21 -20 -18 -17 -15 -12 -66 -63 -60 -51 -30 -62 -59 -50 -29 -57 -48 -27 -47 -26 -24 0
-12 -30 -29 -27 -26 -24 -21 -20 -18 -17 -15 -66 -63 -60 -51 -62 -59 -50 -57 -48 -47 0
-24 -26 -27 -29 -30 -12 -47 -48 -50 -51 -15 -57 -59 -60 -17 -62 -63 -18 -66 -20 -21 0
-24 -15 -51 -50 -48 -47 -12 -30 -29 -27 -26 -21 -20 -18 -17 -66 -63 -60 -62 -59 -57 0
-47 -48 -50 -51 -15 -24 -57 -59 -60 -17 -26 -62 -63 -18 -27 -66 -20 -29 -21 -30 -12 0
-47 -26 -17 -60 -59 -57 -24 -15 -51 -50 -48 -12 -30 -29 -27 -21 -20 -18 -66 -63 -62 0
-57 -59 -60 -17 -26 -47 -62 -63 -18 -27 -48 -66 -20 -29 -50 -21 -30 -51 -12 -15 -24 0
-57 -48 -27 -18 -63 -62 -47 -26 -17 -60 -59 -24 -15 -51 -50 -12 -30 -29 -21 -20 -66 0
-62 -63 -18 -27 -48 -57 -66 -20 -29 -50 -59 -21 -30 -51 -60 -12 -15 -17 -24 -26 -47 0
-62 -59 -50 -29 -20 -66 -57 -48 -27 -18 -63 -47 -26 -17 -60 -24 -15 -51 -12 -30 -21 0
-66 -20 -29 -50 -59 -62 -21 -30 -51 -60 -63 -12 -15 -17 -18 -24 -26 -27 -47 -48 -57 0
-21 -30 -51 -60 -63 -66 -12 -15 -17 -18 -20 -24 -26 -27 -29 -47 -48 -50 -57 -59 -62 0
-66 -63 -60 -51 -30 -21 -62 -59 -50 -29 -20 -57 -48 -27 -18 -47 -26 -17 -24 -15 -12 0
-12 -15 -17 -19 -20 -21 -24 -26 -28 -29 -30 -47 -49 -50 -51 -58 -59 -60 -64 -65 -66 0
-21 -20 -19 -17 -15 -12 -66 -65 -60 -51 -30 -64 -59 -50 -29 -58 -49 -28 -47 -26 -24 0
-12 -30 -29 -28 -26 -24 -21 -20 -19 -17 -15 -66 -65 -60 -51 -64 -59 -50 -58 -49 -47 0
-24 -26 -28 -29 -30 -12 -47 -49 -50 -51 -15 -58 -59 -60 -17 -64 -65 -19 -66 -20 -21 0
-24 -15 -51 -50 -49 -47 -12 -30 -29 -28 -26 -21 -20 -19 -17 -66 -65 -60 -64 -59 -58 0
-47 -49 -50 -51 -15 -24 -58 -59 -60 -17 -26 -64 -65 -19 -28 -66 -20 -29 -21 -30 -12 0
-47 -26 -17 -60 -59 -58 -24 -15 -51 -50 -49 -12 -30 -29 -28 -21 -20 -19 -66 -65 -64 0
-58 -59 -60 -17 -26 -47 -64 -65 -19 -28 -49 -66 -20 -29 -50 -21 -30 -51 -12 -15 -24 0
-58 -49 -28 -19 -65 -64 -47 -26 -17 -60 -59 -24 -15 -51 -50 -12 -30 -29 -21 -20 -66 0
-64 -65 -19 -28 -49 -58 -66 -20 -29 -50 -59 -21 -30 -51 -60 -12 -15 -17 -24 -26 -47 0
-64 -59 -50 -29 -20 -66 -58 -49 -28 -19 -65 -47 -26 -17 -60 -24 -15 -51 -12 -30 -21 0
-66 -20 -29 -50 -59 -64 -21 -30 -51 -60 -65 -12 -15 -17 -19 -24 -26 -28 -47 -49 -58 0
-21 -30 -51 -60 -65 -66 -12 -15 -17 -19 -20 -24 -26 -28 -29 -47 -49 -50 -58 -59 -64 0
-66 -65 -60 -51 -30 -21 -64 -59 -50 -29 -20 -58 -49 -28 -19 -47 -26 -17 -24 -15 -12 0
-12 -15 -18 -19 -20 -21 -24 -27 -28 -29 -30 -48 -49 -50 -51 -61 -62 -63 -64 -65 -66 0
-21 -20 -19 -18 -15 -12 -66 -65 -63 -51 -30 -64 -62 -50 -29 -61 -49 -28 -48 -27 -24 0
-12 -30 -29 -28 -27 -24 -21 -20 -19 -18 -15 -66 -65 -63 -51 -64 -62 -50 -61 -49 -48 0
-24 -27 -28 -29 -30 -12 -48 -49 -50 -51 -15 -61 -62 -63 -18 -64 -65 -19 -66 -20 -21 0
-24 -15 -51 -50 -49 -48 -12 -30 -29 -28 -27 -21 -20 -19 -18 -66 -65 -63 -64 -62 -61 0
-48 -49 -50 -51 -15 -24 -61 -62 -63 -18 -27 -64 -65 -19 -28 -66 -20 -29 -21 -30 -12 0
-48 -27 -18 -63 -62 -61 -24 -15 -51 -50 -49 -12 -30 -29 -28 -21 -20 -19 -66 -65 -64 0
-61 -62 -63 -18 -27 -48 -64 -65 -19 -28 -49 -66 -20 -29 -50 -21 -30 -51 -12 -15 -24 0
-61 -49 -28 -19 -65 -64 -48 -27 -18 -63 -62 -24 -15 -51 -50 -12 -30 -29 -21 -20 -66 0
-64 -65 -19 -28 -49 -61 -66 -20 -29 -50 -62 -21 -30 -51 -63 -12 -15 -18 -24 -27 -48 0
-64 -62 -50 -29 -20 -66 -61 -49 -28 -19 -65 -48 -27 -18 -63 -24 -15 -51 -12 -30 -21 0
-66 -20 -29 -50 -62 -64 -21 -30 -51 -63 -65 -12 -15 -18 -19 -24 -27 -28 -48 -49 -61 0
-21 -30 -51 -63 -65 -66 -12 -15 -18 -19 -20 -24 -27 -28 -29 -48 -49 -50 -61 -62 -64 0
-66 -65 -63 -51 -30 -21 -64 -62 -50 -29 -20 -61 -49 -28 -19 -48 -27 -18 -24 -15 -12 0
-12 -16 -17 -18 -19 -20 -25 -26 -27 -28 -29 -52 -53 -54 -55 -57 -58 -59 -61 -62 -64 0
-20 -19 -18 -17 -16 -12 -64 -62 -59 -55 -29 -61 -58 -54 -28 -57 -53 -27 -52 -26 -25 0
-12 -29 -28 -27 -26 -25 -20 -19 -18 -17 -16 -64 -62 -59 -55 -61 -58 -54 -57 -53 -52 0
-25 -26 -27 -28 -29 -12 -52 -53 -54 -55 -16 -57 -58 -59 -17 -61 -62 -18 -64 -19 -20 0
-25 -16 -55 -54 -53 -52 -12 -29 -28 -27 -26 -20 -19 -18 -17 -64 -62 -59 -61 -58 -57 0
-52 -53 -54 -55 -16 -25 -57 -58 -59 -17 -26 -61 -62 -18 -27 -64 -19 -28 -20 -29 -12 0
-52 -26 -17 -59 -58 -57 -25 -16 -55 -54 -53 -12 -29 -28 -27 -20 -19 -18 -64 -62 -61 0
-57 -58 -59 -17 -26 -52 -61 -62 -18 -27 -53 -64 -19 -28 -54 -20 -29 -55 -12 -16 -25 0
-57 -53 -27 -18 -62 -61 -52 -26 -17 -59 -58 -25 -16 -55 -54 -12 -29 -28 -20 -19 -64 0
-61 -62 -18 -27 -53 -57 -64 -19 -28 -54 -58 -20 -29 -55 -59 -12 -16 -17 -25 -26 -52 0
-61 -58 -54 -28 -19 -64 -57 -53 -27 -18 -62 -52 -26 -17 -59 -25 -16 -55 -12 -29 -20 0
-64 -19 -28 -54 -58 -61 -20 -29 -55 -59 -62 -12 -16 -17 -18 -25 -26 -27 -52 -53 -57 0
-20 -29 -55 -59 -62 -64 -12 -16 -17 -18 -19 -25 -26 -27 -28 -52 -53 -54 -57 -58 -61 0
-64 -62 -59 -55 -29 -20 -61 -58 -54 -28 -19 -57 -53 -27 -18 -52 -26 -17 -25 -16 -12 0
-12 -16 -17 -18 -19 -21 -25 -26 -27 -28 -30 -52 -53 -54 -56 -57 -58 -60 -61 -63 -65 0
-21 -19 -18 -17 -16 -12 -65 -63 -60 -56 -30 -61 -58 -54 -28 -57 -53 -27 -52 -26 -25 0
-12 -30 -28 -27 -26 -25 -21 -19 -18 -17 -16 -65 -63 -60 -56 -61 -58 -54 -57 -53 -52 0
-25 -26 -27 -28 -30 -12 -52 -53 -54 -56 -16 -57 -58 -60 -17 -61 -63 -18 -65 -19 -21 0
-25 -16 -56 -54 -53 -52 -12 -30 -28 -27 -26 -21 -19 -18 -17 -65 -63 -60 -61 -58 -57 0
-52 -53 -54 -56 -16 -25 -57 -58 -60 -17 -26 -61 -63 -18 -27 -65 -19 -28 -21 -30 -12 0
-52 -26 -17 -60 -58 -57 -25 -16 -56 -54 -53 -12 -30 -28 -27 -21 -19 -18 -65 -63 -61 0
-57 -58 -60 -17 -26 -52 -61 -63 -18 -27 -53 -65 -19 -28 -54 -21 -30 -56 -12 -16 -25 0
-57 -53 -27 -18 -63 -61 -52 -26 -17 -60 -58 -25 -16 -56 -54 -12 -30 -28 -21 -19 -65 0
-61 -63 -18 -27 -53 -57 -65 -19 -28 -54 -58 -21 -30 -56 -60 -12 -16 -17 -25 -26 -52 0
-61 -58 -54 -28 -19 -65 -57 -53 -27 -18 -63 -52 -26 -17 -60 -25 -16 -56 -12 -30 -21 0
-65 -19 -28 -54 -58 -61 -21 -30 -56 -60 -63 -12 -16 -17 -18 -25 -26 -27 -52 -53 -57 0
-21 -30 -56 -60 -63 -65 -12 -16 -17 -18 -19 -25 -26 -27 -28 -52 -53 -54 -57 -58 -61 0
-65 -63 -60 -56 -30 -21 -61 -58 -54 -28 -19 -57 -53 -27 -18 -52 -26 -17 -25 -16 -12 0
-12 -16 -17 -18 -20 -21 -25 -26 -27 -29 -30 -52 -53 -55 -56 -57 -59 -60 -62 -63 -66 0
-21 -20 -18 -17 -16 -12 -66 -63 -60 -56 -30 -62 -59 -55 -29 -57 -53 -27 -52 -26 -25 0
-12 -30 -29 -27 -26 -25 -21 -20 -18 -17 -16 -66 -63 -60 -56 -62 -59 -55 -57 -53 -52 0
-25 -26 -27 -29 -30 -12 -52 -53 -55 -56 -16 -57 -59 -60 -17 -62 -63 -18 -66 -20 -21 0
-25 -16 -56 -55 -53 -52 -12 -30 -29 -27 -26 -21 -20 -18 -17 -66 -63 -60 -62 -59 -57 0
-52 -53 -55 -56 -16 -25 -57 -59 -60 -17 -26 -62 -63 -18 -27 -66 -20 -29 -21 -30 -12 0
-52 -26 -17 -60 -59 -57 -25 -16 -56 -55 -53 -12 -30 -29 -27 -21 -20 -18 -66 -63 -62 0
-57 -59 -60 -17 -26 -52 -62 -63 -18 -27 -53 -66 -20 -29 -55 -21 -30 -56 -12 -16 -25 0
-57 -53 -27 -18 -63 -62 -52 -26 -17 -60 -59 -25 -16 -56 -55 -12 -30 -29 -21 -20 -66 0
-62 -63 -18 -27 -53 -57 -66 -20 -29 -55 -59 -21 -30 -56 -60 -12 -16 -17 -25 -26 -52 0
-62 -59 -55 -29 -20 -66 -57 -53 -27 -18 -63 -52 -26 -17 -60 -25 -16 -56 -12 -30 -21 0
-66 -20 -29 -55 -59 -62 -21 -30 -56 -60 -63 -12 -16 -17 -18 -25 -26 -27 -52 -53 -57 0
-21 -30 -56 -60 -63 -66 -12 -16 -17 -18 -20 -25 -26 -27 -29 -52 -53 -55 -57 -59 -62 0
-66 -63 -60 -56 -30 -21 -62 -59 -55 -29 -20 -57 -53 -27 -18 -52 -26 -17 -25 -16 -12 0
-12 -16 -17 -19 -20 -21 -25 -26 -28 -29 -30 -52 -54 -55 -56 -58 -59 -60 -64 -65 -66 0
-21 -20 -19 -17 -16 -12 -66 -65 -60 -56 -30 -64 -59 -55 -29 -58 -54 -28 -52 -26 -25 0
-12 -30 -29 -28 -26 -25 -21 -20 -19 -17 -16 -66 -65 -60 -56 -64 -59 -55 -58 -54 -52 0
-25 -26 -28 -29 -30 -12 -52 -54 -55 -56 -16 -58 -59 -60 -17 -64 -65 -19 -66 -20 -21 0
-25 -16 -56 -55 -54 -52 -12 -30 -29 -28 -26 -21 -20 -19 -17 -66 -65 -60 -64 -59 -58 0
-52 -54 -55 -56 -16 -25 -58 -59 -60 -17 -26 -64 -65 -19 -28 -66 -20 -29 -21 -30 -12 0
-52 -26 -17 -60 -59 -58 -25 -16 -56 -55 -54 -12 -30 -29 -28 -21 -20 -19 -66 -65 -64 0
-58 -59 -60 -17 -26 -52 -64 -65 -19 -28 -54 -66 -20 -29 -55 -21 -30 -56 -12 -16 -25 0
-58 -54 -28 -19 -65 -64 -52 -26 -17 -60 -59 -25 -16 -56 -55 -12 -30 -29 -21 -20 -66 0
-64 -65 -19 -28 -54 -58 -66 -20 -29 -55 -59 -21 -30 -56 -60 -12 -16 -17 -25 -26 -52 0
-64 -59 -55 -29 -20 -66 -58 -54 -28 -19 -65 -52 -26 -17 -60 -25 -16 -56 -12 -30 -21 0
-66 -20 -29 -55 -59 -64 -21 -30 -56 -60 -65 -12 -16 -17 -19 -25 -26 -28 -52 -54 -58 0
-21 -30 -56 -60 -65 -66 -12 -16 -17 -19 -20 -25 -26 -28 -29 -52 -54 -55 -58 -59 -64 0
-66 -65 -60 -56 -30 -21 -64 -59 -55 -29 -20 -58 -54 -28 -19 -52 -26 -17 -25 -16 -12 0
-12 -16 -18 -19 -20 -21 -25 -27 -28 -29 -30 -53 -54 -55 -56 -61 -62 -63 -64 -65 -66 0
-21 -20 -19 -18 -16 -12 -66 -65 -63 -56 -30 -64 -62 -55 -29 -61 -54 -28 -53 -27 -25 0
-12 -30 -29 -28 -27 -25 -21 -20 -19 -18 -16 -66 -65 -63 -56 -64 -62 -55 -61 -54 -53 0
-25 -27 -28 -29 -30 -12 -53 -54 -55 -56 -16 -61 -62 -63 -18 -64 -65 -19 -66 -20 -21 0
-25 -16 -56 -55 -54 -53 -12 -30 -29 -28 -27 -21 -20 -19 -18 -66 -65 -63 -64 -62 -61 0
-53 -54 -55 -56 -16 -25 -61 -62 -63 -18 -27 -64 -65 -19 -28 -66 -20 -29 -21 -30 -12 0
-53 -27 -18 -63 -62 -61 -25 -16 -56 -55 -54 -12 -30 -29 -28 -21 -20 -19 -66 -65 -64 0
-61 -62 -63 -18 -27 -53 -64 -65 -19 -28 -54 -66 -20 -29 -55 -21 -30 -56 -12 -16 -25 0
-61 -54 -28 -19 -65 -64 -53 -27 -18 -63 -62 -25 -16 -56 -55 -12 -30 -29 -21 -20 -66 0
-64 -65 -19 -28 -54 -61 -66 -20 -29 -55 -62 -21 -30 -56 -63 -12 -16 -18 -25 -27 -53 0
-64 -62 -55 -29 -20 -66 -61 -54 -28 -19 -65 -53 -27 -18 -63 -25 -16 -56 -12 -30 -21 0
-66 -20 -29 -55 -62 -64 -21 -30 -56 -63 -65 -12 -16 -18 -19 -25 -27 -28 -53 -54 -61 0
-21 -30 -56 -63 -65 -66 -12 -16 -18 -19 -20 -25 -27 -28 -29 -53 -54 -55 -61 -62 -64 0
-66 -65 -63 -56 -30 -21 -64 -62 -55 -29 -20 -61 -54 -28 -19 -53 -27 -18 -25 -16 -12 0
-12 -17 -18 -19 -20 -21 -26 -27 -28 -29 -30 -57 -58 -59 -60 -61 -62 -63 -64 -65 -66 0
-21 -20 -19 -18 -17 -12 -66 -65 -63 -60 -30 -64 -62 -59 -29 -61 -58 -28 -57 -27 -26 0
-12 -30 -29 -28 -27 -26 -21 -20 -19 -18 -17 -66 -65 -63 -60 -64 -62 -59 -61 -58 -57 0
-26 -27 -28 -29 -30 -12 -57 -58 -59 -60 -17 -61 -62 -63 -18 -64 -65 -19 -66 -20 -21 0
-26 -17 -60 -59 -58 -57 -12 -30 -29 -28 -27 -21 -20 -19 -18 -66 -65 -63 -64 -62 -61 0
-57 -58 -59 -60 -17 -26 -61 -62 -63 -18 -27 -64 -65 -19 -28 -66 -20 -29 -21 -30 -12 0
-57 -27 -18 -63 -62 -61 -26 -17 -60 -59 -58 -12 -30 -29 -28 -21 -20 -19 -66 -65 -64 0
-61 -62 -63 -18 -27 -57 -64 -65 -19 -28 -58 -66 -20 -29 -59 -21 -30 -60 -12 -17 -26 0
-61 -58 -28 -19 -65 -64 -57 -27 -18 -63 -62 -26 -17 -60 -59 -12 -30 -29 -21 -20 -66 0
-64 -65 -19 -28 -58 -61 -66 -20 -29 -59 -62 -21 -30 -60 -63 -12 -17 -18 -26 -27 -57 0
-64 -62 -59 -29 -20 -66 -61 -58 -28 -19 -65 -57 -27 -18 -63 -26 -17 -60 -12 -30 -21 0
-66 -20 -29 -59 -62 -64 -21 -30 -60 -63 -65 -12 -17 -18 -19 -26 -27 -28 -57 -58 -61 0
-21 -30 -60 -63 -65 -66 -12 -17 -18 -19 -20 -26 -27 -28 -29 -57 -58 -59 -61 -62 -64 0
-66 -65 -63 -60 -30 -21 -64 -62 -59 -29 -20 -61 -58 -28 -19 -57 -27 -18 -26 -17 -12 0
-13 -14 -15 -16 -17 -18 -31 -32 -33 -34 -35 -39 -40 -41 -42 -46 -47 -48 -52 -53 -57 0
-18 -17 -16 -15 -14 -13 -57 -53 -48 -42 -35 -52 -47 -41 -34 -46 -40 -33 -39 -32 -31 0
-13 -35 -34 -33 -32 -31 -18 -17 -16 -15 -14 -57 -53 -48 -42 -52 -47 -41 -46 -40 -39 0
-31 -32 -33 -34 -35 -13 -39 -40 -41 -42 -14 -46 -47 -48 -15 -52 -53 -16 -57 -17 -18 0
-31 -14 -42 -41 -40 -39 -13 -35 -34 -33 -32 -18 -17 -16 -15 -57 -53 -48 -52 -47 -46 0
-39 -40 -41 -42 -14 -31 -46 -47 -48 -15 -32 -52 -53 -16 -33 -57 -17 -34 -18 -35 -13 0
-39 -32 -15 -48 -47 -46 -31 -14 -42 -41 -40 -13 -35 -34 -33 -18 -17 -16 -57 -53 -52 0
-46 -47 -48 -15 -32 -39 -52 -53 -16 -33 -40 -57 -17 -34 -41 -18 -35 -42 -13 -14 -31 0
-46 -40 -33 -16 -53 -52 -39 -32 -15 -48 -47 -31 -14 -42 -41 -13 -35 -34 -18 -17 -57 0
-52 -53 -16 -33 -40 -46 -57 -17 -34 -41 -47 -18 -35 -42 -48 -13 -14 -15 -31 -32 -39 0
-52 -47 -41 -34 -17 -57 -46 -40 -33 -16 -53 -39 -32 -15 -48 -31 -14 -42 -13 -35 -18 0
-57 -17 -34 -41 -47 -52 -18 -35 -42 -48 -53 -13 -14 -15 -16 -31 -32 -33 -39 -40 -46 0
-18 -35 -42 -48 -53 -57 -13 -14 -15 -16 -17 -31 -32 -33 -34 -39 -40 -41 -46 -47 -52 0
-57 -53 -48 -42 -35 -18 -52 -47 -41 -34 -17 -46 -40 -33 -16 -39 -32 -15 -31 -14 -13 0
-13 -14 -15 -16 -17 -19 -31 -32 -33 -34 -36 -39 -40 -41 -43 -46 -47 -49 -52 -54 -58 0
-19 -17 -16 -15 -14 -13 -58 -54 -49 -43 -36 -52 -47 -41 -34 -46 -40 -33 -39 -32 -31 0
-13 -36 -34 -33 -32 -31 -19 -17 -16 -15 -14 -58 -54 -49 -43 -52 -47 -41 -46 -40 -39 0
-31 -32 -33 -34 -36 -13 -39 -40 -41 -43 -14 -46 -47 -49 -15 -52 -54 -16 -58 -17 -19 0
-31 -14 -43 -41 -40 -39 -13 -36 -34 -33 -32 -19 -17 -16 -15 -58 -54 -49 -52 -47 -46 0
-39 -40 -41 -43 -14 -31 -46 -47 -49 -15 -32 -52 -54 -16 -33 -58 -17 -34 -19 -36 -13 0
-39 -32 -15 -49 -47 -46 -31 -14 -43 -41 -40 -13 -36 -34 -33 -19 -17 -16 -58 -54 -52 0
-46 -47 -49 -15 -32 -39 -52 -54 -16 -33 -40 -58 -17 -34 -41 -19 -36 -43 -13 -14 -31 0
-46 -40 -33 -16 -54 -52 -39 -32 -15 -49 -47 -31 -14 -43 -41 -13 -36 -34 -19 -17 -58 0
-52 -54 -16 -33 -40 -46 -58 -17 -34 -41 -47 -19 -36 -43 -49 -13 -14 -15 -31 -32 -39 0
-52 -47 -41 -34 -17 -58 -46 -40 -33 -16 -54 -39 -32 -15 -49 -31 -14 -43 -13 -36 -19 0
-58 -17 -34 -41 -47 -52 -19 -36 -43 -49 -54 -13 -14 -15 -16 -31 -32 -33 -39 -40 -46 0
-19 -36 -43 -49 -54 -58 -13 -14 -15 -16 -17 -31 -32 -33 -34 -39 -40 -41 -46 -47 -52 0
-58 -54 -49 -43 -36 -19 -52 -47 -41 -34 -17 -46 -40 -33 -16 -39 -32 -15 -31 -14 -13 0
-13 -14 -15 -16 -17 -20 -31 -32 -33 -34 -37 -39 -40 -41 -44 -46 -47 -50 -52 -55 -59 0
-20 -17 -16 -15 -14 -13 -59 -55 -50 -44 -37 -52 -47 -41 -34 -46 -40 -33 -39 -32 -31 0
-13 -37 -34 -33 -32 -31 -20 -17 -16 -15 -14 -59 -55 -50 -44 -52 -47 -41 -46 -40 -39 0
-31 -32 -33 -34 -37 -13 -39 -40 -41 -44 -14 -46 -47 -50 -15 -52 -55 -16 -59 -17 -20 0
-31 -14 -44 -41 -40 -39 -13 -37 -34 -33 -32 -20 -17 -16 -15 -59 -55 -50 -52 -47 -46 0
-39 -40 -41 -44 -14 -31 -46 -47 -50 -15 -32 -52 -55 -16 -33 -59 -17 -34 -20 -37 -13 0
-39 -32 -15 -50 -47 -46 -31 -14 -44 -41 -40 -13 -37 -34 -33 -20 -17 -16 -59 -55 -52 0
-46 -47 -50 -15 -32 -39 -52 -55 -16 -33 -40 -59 -17 -34 -41 -20 -37 -44 -13 -14 -31 0
-46 -40 -33 -16 -55 -52 -39 -32 -15 -50 -47 -31 -14 -44 -41 -13 -37 -34 -20 -17 -59 0
-52 -55 -16 -33 -40 -46 -59 -17 -34 -41 -47 -20 -37 -44 -50 -13 -14 -15 -31 -32 -39 0
-52 -47 -41 -34 -17 -59 -46 -40 -33 -16 -55 -39 -32 -15 -50 -31 -14 -44 -13 -37 -20 0
-59 -17 -34 -41 -47 -52 -20 -37 -44 -50 -55 -13 -14 -15 -16 -31 -32 -33 -39 -40 -46 0
-20 -37 -44 -50 -55 -59 -13 -14 -15 -16 -17 -31 -32 -33 -34 -39 -40 -41 -46 -47 -52 0
-59 -55 -50 -44 -37 -20 -52 -47 -41 -34 -17 -46 -40 -33 -16 -39 -32 -15 -31 -14 -13 0
-13 -14 -15 -16 -17 -21 -31 -32 -33 -34 -38 -39 -40 -41 -45 -46 -47 -51 -52 -56 -60 0
-21 -17 -16 -15 -14 -13 -60 -56 -51 -45 -38 -52 -47 -41 -34 -46 -40 -33 -39 -32 -31 0
-13 -38 -34 -33 -32 -31 -21 -17 -16 -15 -14 -60 -56 -51 -45 -52 -47 -41 -46 -40 -39 0
-31 -32 -33 -34 -38 -13 -39 -40 -41 -45 -14 -46 -47 -51 -15 -52 -56 -16 -60 -17 -21 0
-31 -14 -45 -41 -40 -39 -13 -38 -34 -33 -32 -21 -17 -16 -15 -60 -56 -51 -52 -47 -46 0
-39 -40 -41 -45 -14 -31 -46 -47 -51 -15 -32 -52 -56 -16 -33 -60 -17 -34 -21 -38 -13 0
-39 -32 -15 -51 -47 -46 -31 -14 -45 -41 -40 -13 -38 -34 -33 -21 -17 -16 -60 -56 -52 0
-46 -47 -51 -15 -32 -39 -52 -56 -16 -33 -40 -60 -17 -34 -41 -21 -38 -45 -13 -14 -31 0
-46 -40 -33 -16 -56 -52 -39 -32 -15 -51 -47 -31 -14 -45 -41 -13 -38 -34 -21 -17 -60 0
-52 -56 -16 -33 -40 -46 -60 -17 -34 -41 -47 -21 -38 -45 -51 -13 -14 -15 -31 -32 -39 0
-52 -47 -41 -34 -17 -60 -46 -40 -33 -16 -56 -39 -32 -15 -51 -31 -14 -45 -13 -38 -21 0
-60 -17 -34 -41 -47 -52 -21 -38 -45 -51 -56 -13 -14 -15 -16 -31 -32 -33 -39 -40 -46 0
-21 -38 -45 -51 -56 -60 -13 -14 -15 -16 -17 -31 -32 -33 -34 -39 -40 -41 -46 -47 -52 0
-60 -56 -51 -45 -38 -21 -52 -47 -41 -34 -17 -46 -40 -33 -16 -39 -32 -15 -31 -14 -13 0
-13 -14 -15 -16 -18 -19 -31 -32 -33 -35 -36 -39 -40 -42 -43 -46 -48 -49 -53 -54 -61 0
-19 -18 -16 -15 -14 -13 -61 -54 -49 -43 -36 -53 -48 -42 -35 -46 -40 -33 -39 -32 -31 0
-13 -36 -35 -33 -32 -31 -19 -18 -16 -15 -14 -61 -54 -49 -43 -53 -48 -42 -46 -40 -39 0
-31 -32 -33 -35 -36 -13 -39 -40 -42 -43 -14 -46 -48 -49 -15 -53 -54 -16 -61 -18 -19 0
-31 -14 -43 -42 -40 -39 -13 -36 -35 -33 -32 -19 -18 -16 -15 -61 -54 -49 -53 -48 -46 0
-39 -40 -42 -43 -14 -31 -46 -48 -49 -15 -32 -53 -54 -16 -33 -61 -18 -35 -19 -36 -13 0
-39 -32 -15 -49 -48 -46 -31 -14 -43 -42 -40 -13 -36 -35 -33 -19 -18 -16 -61 -54 -53 0
-46 -48 -49 -15 -32 -39 -53 -54 -16 -33 -40 -61 -18 -35 -42 -19 -36 -43 -13 -14 -31 0
-46 -40 -33 -16 -54 -53 -39 -32 -15 -49 -48 -31 -14 -43 -42 -13 -36 -35 -19 -18 -61 0
-53 -54 -16 -33 -40 -46 -61 -18 -35 -42 -48 -19 -36 -43 -49 -13 -14 -15 -31 -32 -39 0
-53 -48 -42 -35 -18 -61 -46 -40 -33 -16 -54 -39 -32 -15 -49 -31 -14 -43 -13 -36 -19 0
-61 -18 -35 -42 -48 -53 -19 -36 -43 -49 -54 -13 -14 -15 -16 -31 -32 -33 -39 -40 -46 0
-19 -36 -43 -49 -54 -61 -13 -14 -15 -16 -18 -31 -32 -33 -35 -39 -40 -42 -46 -48 -53 0
-61 -54 -49 -43 -36 -19 -53 -48 -42 -35 -18 -46 -40 -33 -16 -39 -32 -15 -31 -14 -13 0
-13 -14 -15 -16 -18 -20 -31 -32 -33 -35 -37 -39 -40 -42 -44 -46 -48 -50 -53 -55 -62 0
-20 -18 -16 -15 -14 -13 -62 -55 -50 -44 -37 -53 -48 -42 -35 -46 -40 -33 -39 -32 -31 0
-13 -37 -35 -33 -32 -31 -20 -18 -16 -15 -14 -62 -55 -50 -44 -53 -48 -42 -46 -40 -39 0
-31 -32 -33 -35 -37 -13 -39 -40 -42 -44 -14 -46 -48 -50 -15 -53 -55 -16 -62 -18 -20 0
-31 -14 -44 -42 -40 -39 -13 -37 -35 -33 -32 -20 -18 -16 -15 -62 -55 -50 -53 -48 -46 0
-39 -40 -42 -44 -14 -31 -46 -48 -50 -15 -32 -53 -55 -16 -33 -62 -18 -35 -20 -37 -13 0
-39 -32 -15 -50 -48 -46 -31 -14 -44 -42 -40 -13 -37 -35 -33 -20 -18 -16 -62 -55 -53 0
-46 -48 -50 -15 -32 -39 -53 -55 -16 -33 -40 -62 -18 -35 -42 -20 -37 -44 -13 -14 -31 0
-46 -40 -33 -16 -55 -53 -39 -32 -15 -50 -48 -31 -14 -44 -42 -13 -37 -35 -20 -18 -62 0
-53 -55 -16 -33 -40 -46 -62 -18 -35 -42 -48 -20 -37 -44 -50 -13 -14 -15 -31 -32 -39 0
-53 -48 -42 -35 -18 -62 -46 -40 -33 -16 -55 -39 -32 -15 -50 -31 -14 -44 -13 -37 -20 0
-62 -18 -35 -42 -48 -53 -20 -37 -44 -50 -55 -13 -14 -15 -16 -31 -32 -33 -39 -40 -46 0
-20 -37 -44 -50 -55 -62 -13 -14 -15 -16 -18 -31 -32 -33 -35 -39 -40 -42 -46 -48 -53 0
-62 -55 -50 -44 -37 -20 -53 -48 -42 -35 -18 -46 -40 -33 -16 -39 -32 -15 -31 -14 -13 0
-13 -14 -15 -16 -18 -21 -31 -32 -33 -35 -38 -39 -40 -42 -45 -46 -48 -51 -53 -56 -63 0
-21 -18 -16 -15 -14 -13 -63 -56 -51 -45 -38 -53 -48 -42 -35 -46 -40 -33 -39 -32 -31 0
-13 -38 -35 -33 -32 -31 -21 -18 -16 -15 -14 -63 -56 -51 -45 -53 -48 -42 -46 -40 -39 0
-31 -32 -33 -35 -38 -13 -39 -40 -42 -45 -14 -46 -48 -51 -15 -53 -56 -16 -63 -18 -21 0
-31 -14 -45 -42 -40 -39 -13 -38 -35 -33 -32 -21 -18 -16 -15 -63 -56 -51 -53 -48 -46 0
-39 -40 -42 -45 -14 -31 -46 -48 -51 -15 -32 -53 -56 -16 -33 -63 -18 -35 -21 -38 -13 0
-39 -32 -15 -51 -48 -46 -31 -14 -45 -42 -40 -13 -38 -35 -33 -21 -18 -16 -63 -56 -53 0
-46 -48 -51 -15 -32 -39 -53 -56 -16 -33 -40 -63 -18 -35 -42 -21 -38 -45 -13 -14 -31 0
-46 -40 -33 -16 -56 -53 -39 -32 -15 -51 -48 -31 -14 -45 -42 -13 -38 -35 -21 -18 -63 0
-53 -56 -16 -33 -40 -46 -63 -18 -35 -42 -48 -21 -38 -45 -51 -13 -14 -15 -31 -32 -39 0
-53 -48 -42 -35 -18 -63 -46 -40 -33 -16 -56 -39 -32 -15 -51 -31 -14 -45 -13 -38 -21 0
-63 -18 -35 -42 -48 -53 -21 -38 -45 -51 -56 -13 -14 -15 -16 -31 -32 -33 -39 -40 -46 0
-21 -38 -45 -51 -56 -63 -13 -14 -15 -16 -18 -31 -32 -33 -35 -39 -40 -42 -46 -48 -53 0
-63 -56 -51 -45 -38 -21 -53 -48 -42 -35 -18 -46 -40 -33 -16 -39 -32 -15 -31 -14 -13 0
-13 -14 -15 -16 -19 -20 -31 -32 -33 -36 -37 -39 -40 -43 -44 -46 -49 -50 -54 -55 -64 0
-20 -19 -16 -15 -14 -13 -64 -55 -50 -44 -37 -54 -49 -43 -36 -46 -40 -33 -39 -32 -31 0
-13 -37 -36 -33 -32 -31 -20 -19 -16 -15 -14 -64 -55 -50 -44 -54 -49 -43 -46 -40 -39 0
-31 -32 -33 -36 -37 -13 -39 -40 -43 -44 -14 -46 -49 -50 -15 -54 -55 -16 -64 -19 -20 0
-31 -14 -44 -43 -40 -39 -13 -37 -36 -33 -32 -20 -19 -16 -15 -64 -55 -50 -54 -49 -46 0
-39 -40 -43 -44 -14 -31 -46 -49 -50 -15 -32 -54 -55 -16 -33 -64 -19 -36 -20 -37 -13 0
-39 -32 -15 -50 -49 -46 -31 -14 -44 -43 -40 -13 -37 -36 -33 -20 -19 -16 -64 -55 -54 0
-46 -49 -50 -15 -32 -39 -54 -55 -16 -33 -40 -64 -19 -36 -43 -20 -37 -44 -13 -14 -31 0
-46 -40 -33 -16 -55 -54 -39 -32 -15 -50 -49 -31 -14 -44 -43 -13 -37 -36 -20 -19 -64 0
-54 -55 -16 -33 -40 -46 -64 -19 -36 -43 -49 -20 -37 -44 -50 -13 -14 -15 -31 -32 -39 0
-54 -49 -43 -36 -19 -64 -46 -40 -33 -16 -55 -39 -32 -15 -50 -31 -14 -44 -13 -37 -20 0
-64 -19 -36 -43 -49 -54 -20 -37 -44 -50 -55 -13 -14 -15 -16 -31 -32 -33 -39 -40 -46 0
-20 -37 -44 -50 -55 -64 -13 -14 -15 -16 -19 -31 -32 -33 -36 -39 -40 -43 -46 -49 -54 0
-64 -55 -50 -44 -37 -20 -54 -49 -43 -36 -19 -46 -40 -33 -16 -39 -32 -15 -31 -14 -13 0
-13 -14 -15 -16 -19 -21 -31 -32 -33 -36 -38 -39 -40 -43 -45 -46 -49 -51 -54 -56 -65 0
-21 -19 -16 -15 -14 -13 -65 -56 -51 -45 -38 -54 -49 -43 -36 -46 -40 -33 -39 -32 -31 0
-13 -38 -36 -33 -32 -31 -21 -19 -16 -15 -14 -65 -56 -51 -45 -54 -49 -43 -46 -40 -39 0
-31 -32 -33 -36 -38 -13 -39 -40 -43 -45 -14 -46 -49 -51 -15 -54 -56 -16 -65 -19 -21 0
-31 -14 -45 -43 -40 -39 -13 -38 -36 -33 -32 -21 -19 -16 -15 -65 -56 -51 -54 -49 -46 0
-39 -40 -43 -45 -14 -31 -46 -49 -51 -15 -32 -54 -56 -16 -33 -65 -19 -36 -21 -38 -13 0
-39 -32 -15 -51 -49 -46 -31 -14 -45 -43 -40 -13 -38 -36 -33 -21 -19 -16 -65 -56 -54 0
-46 -49 -51 -15 -32 -39 -54 -56 -16 -33 -40 -65 -19 -36 -43 -21 -38 -45 -13 -14 -31 0
-46 -40 -33 -16 -56 -54 -39 -32 -15 -51 -49 -31 -14 -45 -43 -13 -38 -36 -21 -19 -65 0
-54 -56 -16 -33 -40 -46 -65 -19 -36 -43 -49 -21 -38 -45 -51 -13 -14 -15 -31 -32 -39 0
-54 -49 -43 -36 -19 -65 -46 -40 -33 -16 -56 -39 -32 -15 -51 -31 -14 -45 -13 -38 -21 0
-65 -19 -36 -43 -49 -54 -21 -38 -45 -51 -56 -13 -14 -15 -16 -31 -32 -33 -39 -40 -46 0
-21 -38 -45 -51 -56 -65 -13 -14 -15 -16 -19 -31 -32 -33 -36 -39 -40 -43 -46 -49 -54 0
-65 -56 -51 -45 -38 -21 -54 -49 -43 -36 -19 -46 -40 -33 -16 -39 -32 -15 -31 -14 -13 0
-13 -14 -15 -16 -20 -21 -31 -32 -33 -37 -38 -39 -40 -44 -45 -46 -50 -51 -55 -56 -66 0
-21 -20 -16 -15 -14 -13 -66 -56 -51 -45 -38 -55 -50 -44 -37 -46 -40 -33 -39 -32 -31 0
-13 -38 -37 -33 -32 -31 -21 -20 -16 -15 -14 -66 -56 -51 -45 -55 -50 -44 -46 -40 -39 0
-31 -32 -33 -37 -38 -13 -39 -40 -44 -45 -14 -46 -50 -51 -15 -55 -56 -16 -66 -20 -21 0
-31 -14 -45 -44 -40 -39 -13 -38 -37 -33 -32 -21 -20 -16 -15 -66 -56 -51 -55 -50 -46 0
-39 -40 -44 -45 -14 -31 -46 -50 -51 -15 -32 -55 -56 -16 -33 -66 -20 -37 -21 -38 -13 0
-39 -32 -15 -51 -50 -46 -31 -14 -45 -44 -40 -13 -38 -37 -33 -21 -20 -16 -66 -56 -55 0
-46 -50 -51 -15 -32 -39 -55 -56 -16 -33 -40 -66 -20 -37 -44 -21 -38 -45 -13 -14 -31 0
-46 -40 -33 -16 -56 -55 -39 -32 -15 -51 -50 -31 -14 -45 -44 -13 -38 -37 -21 -20 -66 0
-55 -56 -16 -33 -40 -46 -66 -20 -37 -44 -50 -21 -38 -45 -51 -13 -14 -15 -31 -32 -39 0
-55 -50 -44 -37 -20 -66 -46 -40 -33 -16 -56 -39 -32 -15 -51 -31 -14 -45 -13 -38 -21 0
-66 -20 -37 -44 -50 -55 -21 -38 -45 -51 -56 -13 -14 -15 -16 -31 -32 -33 -39 -40 -46 0
-21 -38 -45 -51 -56 -66 -13 -14 -15 -16 -20 -31 -32 -33 -37 -39 -40 -44 -46 -50 -55 0
-66 -56 -51 -45 -38 -21 -55 -50 -44 -37 -20 -46 -40 -33 -16 -39 -32 -15 -31 -14 -13 0
-13 -14 -15 -17 -18 -19 -31 -32 -34 -35 -36 -39 -41 -42 -43 -47 -48 -49 -57 -58 -61 0
-19 -18 -17 -15 -14 -13 -61 -58 -49 -43 -36 -57 -48 -42 -35 -47 -41 -34 -39 -32 -31 0
-13 -36 -35 -34 -32 -31 -19 -18 -17 -15 -14 -61 -58 -49 -43 -57 -48 -42 -47 -41 -39 0
-31 -32 -34 -35 -36 -13 -39 -41 -42 -43 -14 -47 -48 -49 -15 -57 -58 -17 -61 -18 -19 0
-31 -14 -43 -42 -41 -39 -13 -36 -35 -34 -32 -19 -18 -17 -15 -61 -58 -49 -57 -48 -47 0
-39 -41 -42 -43 -14 -31 -47 -48 -49 -15 -32 -57 -58 -17 -34 -61 -18 -35 -19 -36 -13 0
-39 -32 -15 -49 -48 -47 -31 -14 -43 -42 -41 -13 -36 -35 -34 -19 -18 -17 -61 -58 -57 0
-47 -48 -49 -15 -32 -39 -57 -58 -17 -34 -41 -61 -18 -35 -42 -19 -36 -43 -13 -14 -31 0
-47 -41 -34 -17 -58 -57 -39 -32 -15 -49 -48 -31 -14 -43 -42 -13 -36 -35 -19 -18 -61 0
-57 -58 -17 -34 -41 -47 -61 -18 -35 -42 -48 -19 -36 -43 -49 -13 -14 -15 -31 -32 -39 0
-57 -48 -42 -35 -18 -61 -47 -41 -34 -17 -58 -39 -32 -15 -49 -31 -14 -43 -13 -36 -19 0
-61 -18 -35 -42 -48 -57 -19 -36 -43 -49 -58 -13 -14 -15 -17 -31 -32 -34 -39 -41 -47 0
-19 -36 -43 -49 -58 -61 -13 -14 -15 -17 -18 -31 -32 -34 -35 -39 -41 -42 -47 -48 -57 0
-61 -58 -49 -43 -36 -19 -57 -48 -42 -35 -18 -47 -41 -34 -17 -39 -32 -15 -31 -14 -13 0
-13 -14 -15 -17 -18 -20 -31 -32 -34 -35 -37 -39 -41 -42 -44 -47 -48 -50 -57 -59 -62 0
-20 -18 -17 -15 -14 -13 -62 -59 -50 -44 -37 -57 -48 -42 -35 -47 -41 -34 -39 -32 -31 0
-13 -37 -35 -34 -32 -31 -20 -18 -17 -15 -14 -62 -59 -50 -44 -57 -48 -42 -47 -41 -39 0
-31 -32 -34 -35 -37 -13 -39 -41 -42 -44 -14 -47 -48 -50 -15 -57 -59 -17 -62 -18 -20 0
-31 -14 -44 -42 -41 -39 -13 -37 -35 -34 -32 -20 -18 -17 -15 -62 -59 -50 -57 -48 -47 0
-39 -41 -42 -44 -14 -31 -47 -48 -50 -15 -32 -57 -59 -17 -34 -62 -18 -35 -20 -37 -13 0
-39 -32 -15 -50 -48 -47 -31 -14 -44 -42 -41 -13 -37 -35 -34 -20 -18 -17 -62 -59 -57 0
-47 -48 -50 -15 -32 -39 -57 -59 -17 -34 -41 -62 -18 -35 -42 -20 -37 -44 -13 -14 -31 0
-47 -41 -34 -17 -59 -57 -39 -32 -15 -50 -48 -31 -14 -44 -42 -13 -37 -35 -20 -18 -62 0
-57 -59 -17 -34 -41 -47 -62 -18 -35 -42 -48 -20 -37 -44 -50 -13 -14 -15 -31 -32 -39 0
-57 -48 -42 -35 -18 -62 -47 -41 -34 -17 -59 -39 -32 -15 -50 -31 -14 -44 -13 -37 -20 0
-62 -18 -35 -42 -48 -57 -20 -37 -44 -50 -59 -13 -14 -15 -17 -31 -32 -34 -39 -41 -47 0
-20 -37 -44 -50 -59 -62 -13 -14 -15 -17 -18 -31 -32 -34 -35 -39 -41 -42 -47 -48 -57 0
-62 -59 -50 -44 -37 -20 -57 -48 -42 -35 -18 -47 -41 -34 -17 -39 -32 -15 -31 -14 -13 0
-13 -14 -15 -17 -18 -21 -31 -32 -34 -35 -38 -39 -41 -42 -45 -47 -48 -51 -57 -60 -63 0
-21 -18 -17 -15 -14 -13 -63 -60 -51 -45 -38 -57 -48 -42 -35 -47 -41 -34 -39 -32 -31 0
-13 -38 -35 -34 -32 -31 -21 -18 -17 -15 -14 -63 -60 -51 -45 -57 -48 -42 -47 -41 -39 0
-31 -32 -34 -35 -38 -13 -39 -41 -42 -45 -14 -47 -48 -51 -15 -57 -60 -17 -63 -18 -21 0
-31 -14 -45 -42 -41 -39 -13 -38 -35 -34 -32 -21 -18 -17 -15 -63 -60 -51 -57 -48 -47 0
-39 -41 -42 -45 -14 -31 -47 -48 -51 -15 -32 -57 -60 -17 -34 -63 -18 -35 -21 -38 -13 0
-39 -32 -15 -51 -48 -47 -31 -14 -45 -42 -41 -13 -38 -35 -34 -21 -18 -17 -63 -60 -57 0
-47 -48 -51 -15 -32 -39 -57 -60 -17 -34 -41 -63 -18 -35 -42 -21 -38 -45 -13 -14 -31 0
-47 -41 -34 -17 -60 -57 -39 -32 -15 -51 -48 -31 -14 -45 -42 -13 -38 -35 -21 -18 -63 0
-57 -60 -17 -34 -41 -47 -63 -18 -35 -42 -48 -21 -38 -45 -51 -13 -14 -15 -31 -32 -39 0
-57 -48 -42 -35 -18 -63 -47 -41 -34 -17 -60 -39 -32 -15 -51 -31 -14 -45 -13 -38 -21 0
-63 -18 -35 -42 -48 -57 -21 -38 -45 -51 -60 -13 -14 -15 -17 -31 -32 -34 -39 -41 -47 0
-21 -38 -45 -51 -60 -63 -13 -14 -15 -17 -18 -31 -32 -34 -35 -39 -41 -42 -47 -48 -57 0
-63 -60 -51 -45 -38 -21 -57 -48 -42 -35 -18 -47 -41 -34 -17 -39 -32 -15 -31 -14 -13 0
-13 -14 -15 -17 -19 -20 -31 -32 -34 -36 -37 -39 -41 -43 -44 -47 -49 -50 -58 -59 -64 0
-20 -19 -17 -15 -14 -13 -64 -59 -50 -44 -37 -58 -49 -43 -36 -47 -41 -34 -39 -32 -31 0
-13 -37 -36 -34 -32 -31 -20 -19 -17 -15 -14 -64 -59 -50 -44 -58 -49 -43 -47 -41 -39 0
-31 -32 -34 -36 -37 -13 -39 -41 -43 -44 -14 -47 -49 -50 -15 -58 -59 -17 -64 -19 -20 0
-31 -14 -44 -43 -41 -39 -13 -37 -36 -34 -32 -20 -19 -17 -15 -64 -59 -50 -58 -49 -47 0
-39 -41 -43 -44 -14 -31 -47 -49 -50 -15 -32 -58 -59 -17 -34 -64 -19 -36 -20 -37 -13 0
-39 -32 -15 -50 -49 -47 -31 -14 -44 -43 -41 -13 -37 -36 -34 -20 -19 -17 -64 -59 -58 0
-47 -49 -50 -15 -32 -39 -58 -59 -17 -34 -41 -64 -19 -36 -43 -20 -37 -44 -13 -14 -31 0
-47 -41 -34 -17 -59 -58 -39 -32 -15 -50 -49 -31 -14 -44 -43 -13 -37 -36 -20 -19 -64 0
-58 -59 -17 -34 -41 -47 -64 -19 -36 -43 -49 -20 -37 -44 -50 -13 -14 -15 -31 -32 -39 0
-58 -49 -43 -36 -19 -64 -47 -41 -34 -17 -59 -39 -32 -15 -50 -31 -14 -44 -13 -37 -20 0
-64 -19 -36 -43 -49 -58 -20 -37 -44 -50 -59 -13 -14 -15 -17 -31 -32 -34 -39 -41 -47 0
-20 -37 -44 -50 -59 -64 -13 -14 -15 -17 -19 -31 -32 -34 -36 -39 -41 -43 -47 -49 -58 0
-64 -59 -50 -44 -37 -20 -58 -49 -43 -36 -19 -47 -41 -34 -17 -39 -32 -15 -31 -14 -13 0
-13 -14 -15 -17 -19 -21 -31 -32 -34 -36 -38 -39 -41 -43 -45 -47 -49 -51 -58 -60 -65 0
-21 -19 -17 -15 -14 -13 -65 -60 -51 -45 -38 -58 -49 -43 -36 -47 -41 -34 -39 -32 -31 0
-13 -38 -36 -34 -32 -31 -21 -19 -17 -15 -14 -65 -60 -51 -45 -58 -49 -43 -47 -41 -39 0
-31 -32 -34 -36 -38 -13 -39 -41 -43 -45 -14 -47 -49 -51 -15 -58 -60 -17 -65 -19 -21 0
-31 -14 -45 -43 -41 -39 -13 -38 -36 -34 -32 -21 -19 -17 -15 -65 -60 -51 -58 -49 -47 0
-39 -41 -43 -45 -14 -31 -47 -49 -51 -15 -32 -58 -60 -17 -34 -65 -19 -36 -21 -38 -13 0
-39 -32 -15 -51 -49 -47 -31 -14 -45 -43 -41 -13 -38 -36 -34 -21 -19 -17 -65 -60 -58 0
-47 -49 -51 -15 -32 -39 -58 -60 -17 -34 -41 -65 -19 -36 -43 -21 -38 -45 -13 -14 -31 0
-47 -41 -34 -17 -60 -58 -39 -32 -15 -51 -49 -31 -14 -45 -43 -13 -38 -36 -21 -19 -65 0
-58 -60 -17 -34 -41 -47 -65 -19 -36 -43 -49 -21 -38 -45 -51 -13 -14 -15 -31 -32 -39 0
-58 -49 -43 -36 -19 -65 -47 -41 -34 -17 -60 -39 -32 -15 -51 -31 -14 -45 -13 -38 -21 0
-65 -19 -36 -43 -49 -58 -21 -38 -45 -51 -60 -13 -14 -15 -17 -31 -32 -34 -39 -41 -47 0
-21 -38 -45 -51 -60 -65 -13 -14 -15 -17 -19 -31 -32 -34 -36 -39 -41 -43 -47 -49 -58 0
-65 -60 -51 -45 -38 -21 -58 -49 -43 -36 -19 -47 -41 -34 -17 -39 -32 -15 -31 -14 -13 0
-13 -14 -15 -17 -20 -21 -31 -32 -34 -37 -38 -39 -41 -44 -45 -47 -50 -51 -59 -60 -66 0
-21 -20 -17 -15 -14 -13 -66 -60 -51 -45 -38 -59 -50 -44 -37 -47 -41 -34 -39 -32 -31 0
-13 -38 -37 -34 -32 -31 -21 -20 -17 -15 -14 -66 -60 -51 -45 -59 -50 -44 -47 -41 -39 0
-31 -32 -34 -37 -38 -13 -39 -41 -44 -45 -14 -47 -50 -51 -15 -59 -60 -17 -66 -20 -21 0
-31 -14 -45 -44 -41 -39 -13 -38 -37 -34 -32 -21 -20 -17 -15 -66 -60 -51 -59 -50 -47 0
-39 -41 -44 -45 -14 -31 -47 -50 -51 -15 -32 -59 -60 -17 -34 -66 -20 -37 -21 -38 -13 0
-39 -32 -15 -51 -50 -47 -31 -14 -45 -44 -41 -13 -38 -37 -34 -21 -20 -17 -66 -60 -59 0
-47 -50 -51 -15 -32 -39 -59 -60 -17 -34 -41 -66 -20 -37 -44 -21 -38 -45 -13 -14 -31 0
-47 -41 -34 -17 -60 -59 -39 -32 -15 -51 -50 -31 -14 -45 -44 -13 -38 -37 -21 -20 -66 0
-59 -60 -17 -34 -41 -47 -66 -20 -37 -44 -50 -21 -38 -45 -51 -13 -14 -15 -31 -32 -39 0
-59 -50 -44 -37 -20 -66 -47 -41 -34 -17 -60 -39 -32 -15 -51 -31 -14 -45 -13 -38 -21 0
-66 -20 -37 -44 -50 -59 -21 -38 -45 -51 -60 -13 -14 -15 -17 -31 -32 -34 -39 -41 -47 0
-21 -38 -45 -51 -60 -66 -13 -14 -15 -17 -20 -31 -32 -34 -37 -39 -41 -44 -47 -50 -59 0
-66 -60 -51 -45 -38 -21 -59 -50 -44 -37 -20 -47 -41 -34 -17 -39 -32 -15 -31 -14 -13 0
-13 -14 -15 -18 -19 -20 -31 -32 -35 -36 -37 -39 -42 -43 -44 -48 -49 -50 -61 -62 -64 0
-20 -19 -18 -15 -14 -13 -64 -62 -50 -44 -37 -61 -49 -43 -36 -48 -42 -35 -39 -32 -31 0
-13 -37 -36 -35 -32 -31 -20 -19 -18 -15 -14 -64 -62 -50 -44 -61 -49 -43 -48 -42 -39 0
-31 -32 -35 -36 -37 -13 -39 -42 -43 -44 -14 -48 -49 -50 -15 -61 -62 -18 -64 -19 -20 0
-31 -14 -44 -43 -42 -39 -13 -37 -36 -35 -32 -20 -19 -18 -15 -64 -62 -50 -61 -49 -48 0
-39 -42 -43 -44 -14 -31 -48 -49 -50 -15 -32 -61 -62 -18 -35 -64 -19 -36 -20 -37 -13 0
-39 -32 -15 -50 -49 -48 -31 -14 -44 -43 -42 -13 -37 -36 -35 -20 -19 -18 -64 -62 -61 0
-48 -49 -50 -15 -32 -39 -61 -62 -18 -35 -42 -64 -19 -36 -43 -20 -37 -44 -13 -14 -31 0
-48 -42 -35 -18 -62 -61 -39 -32 -15 -50 -49 -31 -14 -44 -43 -13 -37 -36 -20 -19 -64 0
-61 -62 -18 -35 -42 -48 -64 -19 -36 -43 -49 -20 -37 -44 -50 -13 -14 -15 -31 -32 -39 0
-61 -49 -43 -36 -19 -64 -48 -42 -35 -18 -62 -39 -32 -15 -50 -31 -14 -44 -13 -37 -20 0
-64 -19 -36 -43 -49 -61 -20 -37 -44 -50 -62 -13 -14 -15 -18 -31 -32 -35 -39 -42 -48 0
-20 -37 -44 -50 -62 -64 -13 -14 -15 -18 -19 -31 -32 -35 -36 -39 -42 -43 -48 -49 -61 0
-64 -62 -50 -44 -37 -20 -61 -49 -43 -36 -19 -48 -42 -35 -18 -39 -32 -15 -31 -14 -13 0
-13 -14 -15 -18 -19 -21 -31 -32 -35 -36 -38 -39 -42 -43 -45 -48 -49 -51 -61 -63 -65 0
-21 -19 -18 -15 -14 -13 -65 -63 -51 -45 -38 -61 -49 -43 -36 -48 -42 -35 -39 -32 -31 0
-13 -38 -36 -35 -32 -31 -21 -19 -18 -15 -14 -65 -63 -51 -45 -61 -49 -43 -48 -42 -39 0
-31 -32 -35 -36 -38 -13 -39 -42 -43 -45 -14 -48 -49 -51 -15 -61 -63 -18 -65 -19 -21 0
-31 -14 -45 -43 -42 -39 -13 -38 -36 -35 -32 -21 -19 -18 -15 -65 -63 -51 -61 -49 -48 0
-39 -42 -43 -45 -14 -31 -48 -49 -51 -15 -32 -61 -63 -18 -35 -65 -19 -36 -21 -38 -13 0
-39 -32 -15 -51 -49 -48 -31 -14 -45 -43 -42 -13 -38 -36 -35 -21 -19 -18 -65 -63 -61 0
-48 -49 -51 -15 -32 -39 -61 -63 -18 -35 -42 -65 -19 -36 -43 -21 -38 -45 -13 -14 -31 0
-48 -42 -35 -18 -63 -61 -39 -32 -15 -51 -49 -31 -14 -45 -43 -13 -38 -36 -21 -19 -65 0
-61 -63 -18 -35 -42 -48 -65 -19 -36 -43 -49 -21 -38 -45 -51 -13 -14 -15 -31 -32 -39 0
-61 -49 -43 -36 -19 -65 -48 -42 -35 -18 -63 -39 -32 -15 -51 -31 -14 -45 -13 -38 -21 0
-65 -19 -36 -43 -49 -61 -21 -38 -45 -51 -63 -13 -14 -15 -18 -31 -32 -35 -39 -42 -48 0
-21 -38 -45 -51 -63 -65 -13 -14 -15 -18 -19 -31 -32 -35 -36 -39 -42 -43 -48 -49 -61 0
-65 -63 -51 -45 -38 -21 -61 -49 -43 -36 -19 -48 -42 -35 -18 -39 -32 -15 -31 -14 -13 0
-13 -14 -15 -18 -20 -21 -31 -32 -35 -37 -38 -39 -42 -44 -45 -48 -50 -51 -62 -63 -66 0
-21 -20 -18 -15 -14 -13 -66 -63 -51 -45 -38 -62 -50 -44 -37 -48 -42 -35 -39 -32 -31 0
-13 -38 -37 -35 -32 -31 -21 -20 -18 -15 -14 -66 -63 -51 -45 -62 -50 -44 -48 -42 -39 0
-31 -32 -35 -37 -38 -13 -39 -42 -44 -45 -14 -48 -50 -51 -15 -62 -63 -18 -66 -20 -21 0
-31 -14 -45 -44 -42 -39 -13 -38 -37 -35 -32 -21 -20 -18 -15 -66 -63 -51 -62 -50 -48 0
-39 -42 -44 -45 -14 -31 -48 -50 -51 -15 -32 -62 -63 -18 -35 -66 -20 -37 -21 -38 -13 0
-39 -32 -15 -51 -50 -48 -31 -14 -45 -44 -42 -13 -38 -37 -35 -21 -20 -18 -66 -63 -62 0
-48 -50 -51 -15 -32 -39 -62 -63 -18 -35 -42 -66 -20 -37 -44 -21 -38 -45 -13 -14 -31 0
-48 -42 -35 -18 -63 -62 -39 -32 -15 -51 -50 -31 -14 -45 -44 -13 -38 -37 -21 -20 -66 0
-62 -63 -18 -35 -42 -48 -66 -20 -37 -44 -50 -21 -38 -45 -51 -13 -14 -15 -31 -32 -39 0
-62 -50 -44 -37 -20 -66 -48 -42 -35 -18 -63 -39 -32 -15 -51 -31 -14 -45 -13 -38 -21 0
-66 -20 -37 -44 -50 -62 -21 -38 -45 -51 -63 -13 -14 -15 -18 -31 -32 -35 -39 -42 -48 0
-21 -38 -45 -51 -63 -66 -13 -14 -15 -18 -20 -31 -32 -35 -37 -39 -42 -44 -48 -50 -62 0
-66 -63 -51 -45 -38 -21 -62 -50 -44 -37 -20 -48 -42 -35 -18 -39 -32 -15 -31 -14 -13 0
-13 -14 -15 -19 -20 -21 -31 -32 -36 -37 -38 -39 -43 -44 -45 -49 -50 -51 -64 -65 -66 0
-21 -20 -19 -15 -14 -13 -66 -65 -51 -45 -38 -64 -50 -44 -37 -49 -43 -36 -39 -32 -31 0
-13 -38 -37 -36 -32 -31 -21 -20 -19 -15 -14 -66 -65 -51 -45 -64 -50 -44 -49 -43 -39 0
-31 -32 -36 -37 -38 -13 -39 -43 -44 -45 -14 -49 -50 -51 -15 -64 -65 -19 -66 -20 -21 0
-31 -14 -45 -44 -43 -39 -13 -38 -37 -36 -32 -21 -20 -19 -15 -66 -65 -51 -64 -50 -49 0
-39 -43 -44 -45 -14 -31 -49 -50 -51 -15 -32 -64 -65 -19 -36 -66 -20 -37 -21 -38 -13 0
-39 -32 -15 -51 -50 -49 -31 -14 -45 -44 -43 -13 -38 -37 -36 -21 -20 -19 -66 -65 -64 0
-49 -50 -51 -15 -32 -39 -64 -65 -19 -36 -43 -66 -20 -37 -44 -21 -38 -45 -13 -14 -31 0
-49 -43 -36 -19 -65 -64 -39 -32 -15 -51 -50 -31 -14 -45 -44 -13 -38 -37 -21 -20 -66 0
-64 -65 -19 -36 -43 -49 -66 -20 -37 -44 -50 -21 -38 -45 -51 -13 -14 -15 -31 -32 -39 0
-64 -50 -44 -37 -20 -66 -49 -43 -36 -19 -65 -39 -32 -15 -51 -31 -14 -45 -13 -38 -21 0
-66 -20 -37 -44 -50 -64 -21 -38 -45 -51 -65 -13 -14 -15 -19 -31 -32 -36 -39 -43 -49 0
-21 -38 -45 -51 -65 -66 -13 -14 -15 -19 -20 -31 -32 -36 -37 -39 -43 -44 -49 -50 -64 0
-66 -65 -51 -45 -38 -21 -64 -50 -44 -37 -20 -49 -43 -36 -19 -39 -32 -15 -31 -14 -13 0
-13 -14 -16 -17 -18 -19 -31 -33 -34 -35 -36 -40 -41 -42 -43 -52 -53 -54 -57 -58 -61 0
-19 -18 -17 -16 -14 -13 -61 -58 -54 -43 -36 -57 -53 -42 -35 -52 -41 -34 -40 -33 -31 0
-13 -36 -35 -34 -33 -31 -19 -18 -17 -16 -14 -61 -58 -54 -43 -57 -53 -42 -52 -41 -40 0
-31 -33 -34 -35 -36 -13 -40 -41 -42 -43 -14 -52 -53 -54 -16 -57 -58 -17 -61 -18 -19 0
-31 -14 -43 -42 -41 -40 -13 -36 -35 -34 -33 -19 -18 -17 -16 -61 -58 -54 -57 -53 -52 0
-40 -41 -42 -43 -14 -31 -52 -53 -54 -16 -33 -57 -58 -17 -34 -61 -18 -35 -19 -36 -13 0
-40 -33 -16 -54 -53 -52 -31 -14 -43 -42 -41 -13 -36 -35 -34 -19 -18 -17 -61 -58 -57 0
-52 -53 -54 -16 -33 -40 -57 -58 -17 -34 -41 -61 -18 -35 -42 -19 -36 -43 -13 -14 -31 0
-52 -41 -34 -17 -58 -57 -40 -33 -16 -54 -53 -31 -14 -43 -42 -13 -36 -35 -19 -18 -61 0
-57 -58 -17 -34 -41 -52 -61 -18 -35 -42 -53 -19 -36 -43 -54 -13 -14 -16 -31 -33 -40 0
-57 -53 -42 -35 -18 -61 -52 -41 -34 -17 -58 -40 -33 -16 -54 -31 -14 -43 -13 -36 -19 0
-61 -18 -35 -42 -53 -57 -19 -36 -43 -54 -58 -13 -14 -16 -17 -31 -33 -34 -40 -41 -52 0
-19 -36 -43 -54 -58 -61 -13 -14 -16 -17 -18 -31 -33 -34 -35 -40 -41 -42 -52 -53 -57 0
-61 -58 -54 -43 -36 -19 -57 -53 -42 -35 -18 -52 -41 -34 -17 -40 -33 -16 -31 -14 -13 0
-13 -14 -16 -17 -18 -20 -31 -33 -34 -35 -37 -40 -41 -42 -44 -52 -53 -55 -57 -59 -62 0
-20 -18 -17 -16 -14 -13 -62 -59 -55 -44 -37 -57 -53 -42 -35 -52 -41 -34 -40 -33 -31 0
-13 -37 -35 -34 -33 -31 -20 -18 -17 -16 -14 -62 -59 -55 -44 -57 -53 -42 -52 -41 -40 0
-31 -33 -34 -35 -37 -13 -40 -41 -42 -44 -14 -52 -53 -55 -16 -57 -59 -17 -62 -18 -20 0
-31 -14 -44 -42 -41 -40 -13 -37 -35 -34 -33 -20 -18 -17 -16 -62 -59 -55 -57 -53 -52 0
-40 -41 -42 -44 -14 -31 -52 -53 -55 -16 -33 -57 -59 -17 -34 -62 -18 -35 -20 -37 -13 0
-40 -33 -16 -55 -53 -52 -31 -14 -44 -42 -41 -13 -37 -35 -34 -20 -18 -17 -62 -59 -57 0
-52 -53 -55 -16 -33 -40 -57 -59 -17 -34 -41 -62 -18 -35 -42 -20 -37 -44 -13 -14 -31 0
-52 -41 -34 -17 -59 -57 -40 -33 -16 -55 -53 -31 -14 -44 -42 -13 -37 -35 -20 -18 -62 0
-57 -59 -17 -34 -41 -52 -62 -18 -35 -42 -53 -20 -37 -44 -55 -13 -14 -16 -31 -33 -40 0
-57 -53 -42 -35 -18 -62 -52 -41 -34 -17 -59 -40 -33 -16 -55 -31 -14 -44 -13 -37 -20 0
-62 -18 -35 -42 -53 -57 -20 -37 -44 -55 -59 -13 -14 -16 -17 -31 -33 -34 -40 -41 -52 0
-20 -37 -44 -55 -59 -62 -13 -14 -16 -17 -18 -31 -33 -34 -35 -40 -41 -42 -52 -53 -57 0
-62 -59 -55 -44 -37 -20 -57 -53 -42 -35 -18 -52 -41 -34 -17 -40 -33 -16 -31 -14 -13 0
-13 -14 -16 -17 -18 -21 -31 -33 -34 -35 -38 -40 -41 -42 -45 -52 -53 -56 -57 -60 -63 0
-21 -18 -17 -16 -14 -13 -63 -60 -56 -45 -38 -57 -53 -42 -35 -52 -41 -34 -40 -33 -31 0
-13 -38 -35 -34 -33 -31 -21 -18 -17 -16 -14 -63 -60 -56 -45 -57 -53 -42 -52 -41 -40 0
-31 -33 -34 -35 -38 -13 -40 -41 -42 -45 -14 -52 -53 -56 -16 -57 -60 -17 -63 -18 -21 0
-31 -14 -45 -42 -41 -40 -13 -38 -35 -34 -33 -21 -18 -17 -16 -63 -60 -56 -57 -53 -52 0
-40 -41 -42 -45 -14 -31 -52 -53 -56 -16 -33 -57 -60 -17 -34 -63 -18 -35 -21 -38 -13 0
-40 -33 -16 -56 -53 -52 -31 -14 -45 -42 -41 -13 -38 -35 -34 -21 -18 -17 -63 -60 -57 0
-52 -53 -56 -16 -33 -40 -57 -60 -17 -34 -41 -63 -18 -35 -42 -21 -38 -45 -13 -14 -31 0
-52 -41 -34 -17 -60 -57 -40 -33 -16 -56 -53 -31 -14 -45 -42 -13 -38 -35 -21 -18 -63 0
-57 -60 -17 -34 -41 -52 -63 -18 -35 -42 -53 -21 -38 -45 -56 -13 -14 -16 -31 -33 -40 0
-57 -53 -42 -35 -18 -63 -52 -41 -34 -17 -60 -40 -33 -16 -56 -31 -14 -45 -13 -38 -21 0
-63 -18 -35 -42 -53 -57 -21 -38 -45 -56 -60 -13 -14 -16 -17 -31 -33 -34 -40 -41 -52 0
-21 -38 -45 -56 -60 -63 -13 -14 -16 -17 -18 -31 -33 -34 -35 -40 -41 -42 -52 -53 -57 0
-63 -60 -56 -45 -38 -21 -57 -53 -42 -35 -18 -52 -41 -34 -17 -40 -33 -16 -31 -14 -13 0
-13 -14 -16 -17 -19 -20 -31 -33 -34 -36 -37 -40 -41 -43 -44 -52 -54 -55 -58 -59 -64 0
-20 -19 -17 -16 -14 -13 -64 -59 -55 -44 -37 -58 -54 -43 -36 -52 -41 -34 -40 -33 -31 0
-13 -37 -36 -34 -33 -31 -20 -19 -17 -16 -14 -64 -59 -55 -44 -58 -54 -43 -52 -41 -40 0
-31 -33 -34 -36 -37 -13 -40 -41 -43 -44 -14 -52 -54 -55 -16 -58 -59 -17 -64 -19 -20 0
-31 -14 -44 -43 -41 -40 -13 -37 -36 -34 -33 -20 -19 -17 -16 -64 -59 -55 -58 -54 -52 0
-40 -41 -43 -44 -14 -31 -52 -54 -55 -16 -33 -58 -59 -17 -34 -64 -19 -36 -20 -37 -13 0
-40 -33 -16 -55 -54 -52 -31 -14 -44 -43 -41 -13 -37 -36 -34 -20 -19 -17 -64 -59 -58 0
-52 -54 -55 -16 -33 -40 -58 -59 -17 -34 -41 -64 -19 -36 -43 -20 -37 -44 -13 -14 -31 0
-52 -41 -34 -17 -59 -58 -40 -33 -16 -55 -54 -31 -14 -44 -43 -13 -37 -36 -20 -19 -64 0
-58 -59 -17 -34 -41 -52 -64 -19 -36 -43 -54 -20 -37 -44 -55 -13 -14 -16 -31 -33 -40 0
-58 -54 -43 -36 -19 -64 -52 -41 -34 -17 -59 -40 -33 -16 -55 -31 -14 -44 -13 -37 -20 0
-64 -19 -36 -43 -54 -58 -20 -37 -44 -55 -59 -13 -14 -16 -17 -31 -33 -34 -40 -41 -52 0
-20 -37 -44 -55 -59 -64 -13 -14 -16 -17 -19 -31 -33 -34 -36 -40 -41 -43 -52 -54 -58 0
-64 -59 -55 -44 -37 -20 -58 -54 -43 -36 -19 -52 -41 -34 -17 -40 -33 -16 -31 -14 -13 0
-13 -14 -16 -17 -19 -21 -31 -33 -34 -36 -38 -40 -41 -43 -45 -52 -54 -56 -58 -60 -65 0
-21 -19 -17 -16 -14 -13 -65 -60 -56 -45 -38 -58 -54 -43 -36 -52 -41 -34 -40 -33 -31 0
-13 -38 -36 -34 -33 -31 -21 -19 -17 -16 -14 -65 -60 -56 -45 -58 -54 -43 -52 -41 -40 0
-31 -33 -34 -36 -38 -13 -40 -41 -43 -45 -14 -52 -54 -56 -16 -58 -60 -17 -65 -19 -21 0
-31 -14 -45 -43 -41 -40 -13 -38 -36 -34 -33 -21 -19 -17 -16 -65 -60 -56 -58 -54 -52 0
-40 -41 -43 -45 -14 -31 -52 -54 -56 -16 -33 -58 -60 -17 -34 -65 -19 -36 -21 -38 -13 0
-40 -33 -16 -56 -54 -52 -31 -14 -45 -43 -41 -13 -38 -36 -34 -21 -19 -17 -65 -60 -58 0
-52 -54 -56 -16 -33 -40 -58 -60 -17 -34 -41 -65 -19 -36 -43 -21 -38 -45 -13 -14 -31 0
-52 -41 -34 -17 -60 -58 -40 -33 -16 -56 -54 -31 -14 -45 -43 -13 -38 -36 -21 -19 -65 0
-58 -60 -17 -34 -41 -52 -65 -19 -36 -43 -54 -21 -38 -45 -56 -13 -14 -16 -31 -33 -40 0
-58 -54 -43 -36 -19 -65 -52 -41 -34 -17 -60 -40 -33 -16 -56 -31 -14 -45 -13 -38 -21 0
-65 -19 -36 -43 -54 -58 -21 -38 -45 -56 -60 -13 -14 -16 -17 -31 -33 -34 -40 -41 -52 0
-21 -38 -45 -56 -60 -65 -13 -14 -16 -17 -19 -31 -33 -34 -36 -40 -41 -43 -52 -54 -58 0
-65 -60 -56 -45 -38 -21 -58 -54 -43 -36 -19 -52 -41 -34 -17 -40 -33 -16 -31 -14 -13 0
-13 -14 -16 -17 -20 -21 -31 -33 -34 -37 -38 -40 -41 -44 -45 -52 -55 -56 -59 -60 -66 0
-21 -20 -17 -16 -14 -13 -66 -60 -56 -45 -38 -59 -55 -44 -37 -52 -41 -34 -40 -33 -31 0
-13 -38 -37 -34 -33 -31 -21 -20 -17 -16 -14 -66 -60 -56 -45 -59 -55 -44 -52 -41 -40 0
-31 -33 -34 -37 -38 -13 -40 -41 -44 -45 -14 -52 -55 -56 -16 -59 -60 -17 -66 -20 -21 0
-31 -14 -45 -44 -41 -40 -13 -38 -37 -34 -33 -21 -20 -17 -16 -66 -60 -56 -59 -55 -52 0
-40 -41 -44 -45 -14 -31 -52 -55 -56 -16 -33 -59 -60 -17 -34 -66 -20 -37 -21 -38 -13 0
-40 -33 -16 -56 -55 -52 -31 -14 -45 -44 -41 -13 -38 -37 -34 -21 -20 -17 -66 -60 -59 0
-52 -55 -56 -16 -33 -40 -59 -60 -17 -34 -41 -66 -20 -37 -44 -21 -38 -45 -13 -14 -31 0
-52 -41 -34 -17 -60 -59 -40 -33 -16 -56 -55 -31 -14 -45 -44 -13 -38 -37 -21 -20 -66 0
-59 -60 -17 -34 -41 -52 -66 -20 -37 -44 -55 -21 -38 -45 -56 -13 -14 -16 -31 -33 -40 0
-59 -55 -44 -37 -20 -66 -52 -41 -34 -17 -60 -40 -33 -16 -56 -31 -14 -45 -13 -38 -21 0
-66 -20 -37 -44 -55 -59 -21 -38 -45 -56 -60 -13 -14 -16 -17 -31 -33 -34 -40 -41 -52 0
-21 -38 -45 -56 -60 -66 -13 -14 -16 -17 -20 -31 -33 -34 -37 -40 -41 -44 -52 -55 -59 0
-66 -60 -56 -45 -38 -21 -59 -55 -44 -37 -20 -52 -41 -34 -17 -40 -33 -16 -31 -14 -13 0
-13 -14 -16 -18 -19 -20 -31 -33 -35 -36 -37 -40 -42 -43 -44 -53 -54 -55 -61 -62 -64 0
-20 -19 -18 -16 -14 -13 -64 -62 -55 -44 -37 -61 -54 -43 -36 -53 -42 -35 -40 -33 -31 0
-13 -37 -36 -35 -33 -31 -20 -19 -18 -16 -14 -64 -62 -55 -44 -61 -54 -43 -53 -42 -40 0
-31 -33 -35 -36 -37 -13 -40 -42 -43 -44 -14 -53 -54 -55 -16 -61 -62 -18 -64 -19 -20 0
-31 -14 -44 -43 -42 -40 -13 -37 -36 -35 -33 -20 -19 -18 -16 -64 -62 -55 -61 -54 -53 0
-40 -42 -43 -44 -14 -31 -53 -54 -55 -16 -33 -61 -62 -18 -35 -64 -19 -36 -20 -37 -13 0
-40 -33 -16 -55 -54 -53 -31 -14 -44 -43 -42 -13 -37 -36 -35 -20 -19 -18 -64 -62 -61 0
-53 -54 -55 -16 -33 -40 -61 -62 -18 -35 -42 -64 -19 -36 -43 -20 -37 -44 -13 -14 -31 0
-53 -42 -35 -18 -62 -61 -40 -33 -16 -55 -54 -31 -14 -44 -43 -13 -37 -36 -20 -19 -64 0
-61 -62 -18 -35 -42 -53 -64 -19 -36 -43 -54 -20 -37 -44 -55 -13 -14 -16 -31 -33 -40 0
-61 -54 -43 -36 -19 -64 -53 -42 -35 -18 -62 -40 -33 -16 -55 -31 -14 -44 -13 -37 -20 0
-64 -19 -36 -43 -54 -61 -20 -37 -44 -55 -62 -13 -14 -16 -18 -31 -33 -35 -40 -42 -53 0
-20 -37 -44 -55 -62 -64 -13 -14 -16 -18 -19 -31 -33 -35 -36 -40 -42 -43 -53 -54 -61 0
-64 -62 -55 -44 -37 -20 -61 -54 -43 -36 -19 -53 -42 -35 -18 -40 -33 -16 -31 -14 -13 0
-13 -14 -16 -18 -19 -21 -31 -33 -35 -36 -38 -40 -42 -43 -45 -53 -54 -56 -61 -63 -65 0
-21 -19 -18 -16 -14 -13 -65 -63 -56 -45 -38 -61 -54 -43 -36 -53 -42 -35 -40 -33 -31 0
-13 -38 -36 -35 -33 -31 -21 -19 -18 -16 -14 -65 -63 -56 -45 -61 -54 -43 -53 -42 -40 0
-31 -33 -35 -36 -38 -13 -40 -42 -43 -45 -14 -53 -54 -56 -16 -61 -63 -18 -65 -19 -21 0
-31 -14 -45 -43 -42 -40 -13 -38 -36 -35 -33 -21 -19 -18 -16 -65 -63 -56 -61 -54 -53 0
-40 -42 -43 -45 -14 -31 -53 -54 -56 -16 -33 -61 -63 -18 -35 -65 -19 -36 -21 -38 -13 0
-40 -33 -16 -56 -54 -53 -31 -14 -45 -43 -42 -13 -38 -36 -35 -21 -19 -18 -65 -63 -61 0
-53 -54 -56 -16 -33 -40 -61 -63 -18 -35 -42 -65 -19 -36 -43 -21 -38 -45 -13 -14 -31 0
-53 -42 -35 -18 -63 -61 -40 -33 -16 -56 -54 -31 -14 -45 -43 -13 -38 -36 -21 -19 -65 0
-61 -63 -18 -35 -42 -53 -65 -19 -36 -43 -54 -21 -38 -45 -56 -13 -14 -16 -31 -33 -40 0
-61 -54 -43 -36 -19 -65 -53 -42 -35 -18 -63 -40 -33 -16 -56 -31 -14 -45 -13 -38 -21 0
-65 -19 -36 -43 -54 -61 -21 -38 -45 -56 -63 -13 -14 -16 -18 -31 -33 -35 -40 -42 -53 0
-21 -38 -45 -56 -63 -65 -13 -14 -16 -18 -19 -31 -33 -35 -36 -40 -42 -43 -53 -54 -61 0
-65 -63 -56 -45 -38 -21 -61 -54 -43 -36 -19 -53 -42 -35 -18 -40 -33 -16 -31 -14 -13 0
-13 -14 -16 -18 -20 -21 -31 -33 -35 -37 -38 -40 -42 -44 -45 -53 -55 -56 -62 -63 -66 0
-21 -20 -18 -16 -14 -13 -66 -63 -56 -45 -38 -62 -55 -44 -37 -53 -42 -35 -40 -33 -31 0
-13 -38 -37 -35 -33 -31 -21 -20 -18 -16 -14 -66 -63 -56 -45 -62 -55 -44 -53 -42 -40 0
-31 -33 -35 -37 -38 -13 -40 -42 -44 -45 -14 -53 -55 -56 -16 -62 -63 -18 -66 -20 -21 0
-31 -14 -45 -44 -42 -40 -13 -38 -37 -35 -33 -21 -20 -18 -16 -66 -63 -56 -62 -55 -53 0
-40 -42 -44 -45 -14 -31 -53 -55 -56 -16 -33 -62 -63 -18 -35 -66 -20 -37 -21 -38 -13 0
-40 -33 -16 -56 -55 -53 -31 -14 -45 -44 -42 -13 -38 -37 -35 -21 -20 -18 -66 -63 -62 0
-53 -55 -56 -16 -33 -40 -62 -63 -18 -35 -42 -66 -20 -37 -44 -21 -38 -45 -13 -14 -31 0
-53 -42 -35 -18 -63 -62 -40 -33 -16 -56 -55 -31 -14 -45 -44 -13 -38 -37 -21 -20 -66 0
-62 -63 -18 -35 -42 -53 -66 -20 -37 -44 -55 -21 -38 -45 -56 -13 -14 -16 -31 -33 -40 0
-62 -55 -44 -37 -20 -66 -53 -42 -35 -18 -63 -40 -33 -16 -56 -31 -14 -45 -13 -38 -21 0
-66 -20 -37 -44 -55 -62 -21 -38 -45 -56 -63 -13 -14 -16 -18 -31 -33 -35 -40 -42 -53 0
-21 -38 -45 -56 -63 -66 -13 -14 -16 -18 -20 -31 -33 -35 -37 -40 -42 -44 -53 -55 -62 0
-66 -63 -56 -45 -38 -21 -62 -55 -44 -37 -20 -53 -42 -35 -18 -40 -33 -16 -31 -14 -13 0
-13 -14 -16 -19 -20 -21 -31 -33 -36 -37 -38 -40 -43 -44 -45 -54 -55 -56 -64 -65 -66 0
-21 -20 -19 -16 -14 -13 -66 -65 -56 -45 -38 -64 -55 -44 -37 -54 -43 -36 -40 -33 -31 0
-13 -38 -37 -36 -33 -31 -21 -20 -19 -16 -14 -66 -65 -56 -45 -64 -55 -44 -54 -43 -40 0
-31 -33 -36 -37 -38 -13 -40 -43 -44 -45 -14 -54 -55 -56 -16 -64 -65 -19 -66 -20 -21 0
-31 -14 -45 -44 -43 -40 -13 -38 -37 -36 -33 -21 -20 -19 -16 -66 -65 -56 -64 -55 -54 0
-40 -43 -44 -45 -14 -31 -54 -55 -56 -16 -33 -64 -65 -19 -36 -66 -20 -37 -21 -38 -13 0
-40 -33 -16 -56 -55 -54 -31 -14 -45 -44 -43 -13 -38 -37 -36 -21 -20 -19 -66 -65 -64 0
-54 -55 -56 -16 -33 -40 -64 -65 -19 -36 -43 -66 -20 -37 -44 -21 -38 -45 -13 -14 -31 0
-54 -43 -36 -19 -65 -64 -40 -33 -16 -56 -55 -31 -14 -45 -44 -13 -38 -37 -21 -20 -66 0
-64 -65 -19 -36 -43 -54 -66 -20 -37 -44 -55 -21 -38 -45 -56 -13 -14 -16 -31 -33 -40 0
-64 -55 -44 -37 -20 -66 -54 -43 -36 -19 -65 -40 -33 -16 -56 -31 -14 -45 -13 -38 -21 0
-66 -20 -37 -44 -55 -64 -21 -38 -45 -56 -65 -13 -14 -16 -19 -31 -33 -36 -40 -43 -54 0
-21 -38 -45 -56 -65 -66 -13 -14 -16 -19 -20 -31 -33 -36 -37 -40 -43 -44 -54 -55 -64 0
-66 -65 -56 -45 -38 -21 -64 -55 -44 -37 -20 -54 -43 -36 -19 -40 -33 -16 -31 -14 -13 0
-13 -14 -17 -18 -19 -20 -31 -34 -35 -36 -37 -41 -42 -43 -44 -57 -58 -59 -61 -62 -64 0
-20 -19 -18 -17 -14 -13 -64 -62 -59 -44 -37 -61 -58 -43 -36 -57 -42 -35 -41 -34 -31 0
-13 -37 -36 -35 -34 -31 -20 -19 -18 -17 -14 -64 -62 -59 -44 -61 -58 -43 -57 -42 -41 0
-31 -34 -35 -36 -37 -13 -41 -42 -43 -44 -14 -57 -58 -59 -17 -61 -62 -18 -64 -19 -20 0
-31 -14 -44 -43 -42 -41 -13 -37 -36 -35 -34 -20 -19 -18 -17 -64 -62 -59 -61 -58 -57 0
-41 -42 -43 -44 -14 -31 -57 -58 -59 -17 -34 -61 -62 -18 -35 -64 -19 -36 -20 -37 -13 0
-41 -34 -17 -59 -58 -57 -31 -14 -44 -43 -42 -13 -37 -36 -35 -20 -19 -18 -64 -62 -61 0
-57 -58 -59 -17 -34 -41 -61 -62 -18 -35 -42 -64 -19 -36 -43 -20 -37 -44 -13 -14 -31 0
-57 -42 -35 -18 -62 -61 -41 -34 -17 -59 -58 -31 -14 -44 -43 -13 -37 -36 -20 -19 -64 0
-61 -62 -18 -35 -42 -57 -64 -19 -36 -43 -58 -20 -37 -44 -59 -13 -14 -17 -31 -34 -41 0
-61 -58 -43 -36 -19 -64 -57 -42 -35 -18 -62 -41 -34 -17 -59 -31 -14 -44 -13 -37 -20 0
-64 -19 -36 -43 -58 -61 -20 -37 -44 -59 -62 -13 -14 -17 -18 -31 -34 -35 -41 -42 -57 0
-20 -37 -44 -59 -62 -64 -13 -14 -17 -18 -19 -31 -34 -35 -36 -41 -42 -43 -57 -58 -61 0
-64 -62 -59 -44 -37 -20 -61 -58 -43 -36 -19 -57 -42 -35 -18 -41 -34 -17 -31 -14 -13 0
-13 -14 -17 -18 -19 -21 -31 -34 -35 -36 -38 -41 -42 -43 -45 -57 -58 -60 -61 -63 -65 0
-21 -19 -18 -17 -14 -13 -65 -63 -60 -45 -38 -61 -58 -43 -36 -57 -42 -35 -41 -34 -31 0
-13 -38 -36 -35 -34 -31 -21 -19 -18 -17 -14 -65 -63 -60 -45 -61 -58 -43 -57 -42 -41 0
-31 -34 -35 -36 -38 -13 -41 -42 -43 -45 -14 -57 -58 -60 -17 -61 -63 -18 -65 -19 -21 0
-31 -14 -45 -43 -42 -41 -13 -38 -36 -35 -34 -21 -19 -18 -17 -65 -63 -60 -61 -58 -57 0
-41 -42 -43 -45 -14 -31 -57 -58 -60 -17 -34 -61 -63 -18 -35 -65 -19 -36 -21 -38 -13 0
-41 -34 -17 -60 -58 -57 -31 -14 -45 -43 -42 -13 -38 -36 -35 -21 -19 -18 -65 -63 -61 0
-57 -58 -60 -17 -34 -41 -61 -63 -18 -35 -42 -65 -19 -36 -43 -21 -38 -45 -13 -14 -31 0
-57 -42 -35 -18 -63 -61 -41 -34 -17 -60 -58 -31 -14 -45 -43 -13 -38 -36 -21 -19 -65 0
-61 -63 -18 -35 -42 -57 -65 -19 -36 -43 -58 -21 -38 -45 -60 -13 -14 -17 -31 -34 -41 0
-61 -58 -43 -36 -19 -65 -57 -42 -35 -18 -63 -41 -34 -17 -60 -31 -14 -45 -13 -38 -21 0
-65 -19 -36 -43 -58 -61 -21 -38 -45 -60 -63 -13 -14 -17 -18 -31 -34 -35 -41 -42 -57 0
-21 -38 -45 -60 -63 -65 -13 -14 -17 -18 -19 -31 -34 -35 -36 -41 -42 -43 -57 -58 -61 0
-65 -63 -60 -45 -38 -21 -61 -58 -43 -36 -19 -57 -42 -35 -18 -41 -34 -17 -31 -14 -13 0
-13 -14 -17 -18 -20 -21 -31 -34 -35 -37 -38 -41 -42 -44 -45 -57 -59 -60 -62 -63 -66 0
-21 -20 -18 -17 -14 -13 -66 -63 -60 -45 -38 -62 -59 -44 -37 -57 -42 -35 -41 -34 -31 0
-13 -38 -37 -35 -34 -31 -21 -20 -18 -17 -14 -66 -63 -60 -45 -62 -59 -44 -57 -42 -41 0
-31 -34 -35 -37 -38 -13 -41 -42 -44 -45 -14 -57 -59 -60 -17 -62 -63 -18 -66 -20 -21 0
-31 -14 -45 -44 -42 -41 -13 -38 -37 -35 -34 -21 -20 -18 -17 -66 -63 -60 -62 -59 -57 0
-41 -42 -44 -45 -14 -31 -57 -59 -60 -17 -34 -62 -63 -18 -35 -66 -20 -37 -21 -38 -13 0
-41 -34 -17 -60 -59 -57 -31 -14 -45 -44 -42 -13 -38 -37 -35 -21 -20 -18 -66 -63 -62 0
-57 -59 -60 -17 -34 -41 -62 -63 -18 -35 -42 -66 -20 -37 -44 -21 -38 -45 -13 -14 -31 0
-57 -42 -35 -18 -63 -62 -41 -34 -17 -60 -59 -31 -14 -45 -44 -13 -38 -37 -21 -20 -66 0
-62 -63 -18 -35 -42 -57 -66 -20 -37 -44 -59 -21 -38 -45 -60 -13 -14 -17 -31 -34 -41 0
-62 -59 -44 -37 -20 -66 -57 -42 -35 -18 -63 -41 -34 -17 -60 -31 -14 -45 -13 -38 -21 0
-66 -20 -37 -44 -59 -62 -21 -38 -45 -60 -63 -13 -14 -17 -18 -31 -34 -35 -41 -42 -57 0
-21 -38 -45 -60 -63 -66 -13 -14 -17 -18 -20 -31 -34 -35 -37 -41 -42 -44 -57 -59 -62 0
-66 -63 -60 -45 -38 -21 -62 -59 -44 -37 -20 -57 -42 -35 -18 -41 -34 -17 -31 -14 -13 0
-13 -14 -17 -19 -20 -21 -31 -34 -36 -37 -38 -41 -43 -44 -45 -58 -59 -60 -64 -65 -66 0
-21 -20 -19 -17 -14 -13 -66 -65 -60 -45 -38 -64 -59 -44 -37 -58 -43 -36 -41 -34 -31 0
-13 -38 -37 -36 -34 -31 -21 -20 -19 -17 -14 -66 -65 -60 -45 -64 -59 -44 -58 -43 -41 0
-31 -34 -36 -37 -38 -13 -41 -43 -44 -45 -14 -58 -59 -60 -17 -64 -65 -19 -66 -20 -21 0
-31 -14 -45 -44 -43 -41 -13 -38 -37 -36 -34 -21 -20 -19 -17 -66 -65 -60 -64 -59 -58 0
-41 -43 -44 -45 -14 -31 -58 -59 -60 -17 -34 -64 -65 -19 -36 -66 -20 -37 -21 -38 -13 0
-41 -34 -17 -60 -59 -58 -31 -14 -45 -44 -43 -13 -38 -37 -36 -21 -20 -19 -66 -65 -64 0
-58 -59 -60 -17 -34 -41 -64 -65 -19 -36 -43 -66 -20 -37 -44 -21 -38 -45 -13 -14 -31 0
-58 -43 -36 -19 -65 -64 -41 -34 -17 -60 -59 -31 -14 -45 -44 -13 -38 -37 -21 -20 -66 0
-64 -65 -19 -36 -43 -58 -66 -20 -37 -44 -59 -21 -38 -45 -60 -13 -14 -17 -31 -34 -41 0
-64 -59 -44 -37 -20 -66 -58 -43 -36 -19 -65 -41 -34 -17 -60 -31 -14 -45 -13 -38 -21 0
-66 -20 -37 -44 -59 -64 -21 -38 -45 -60 -65 -13 -14 -17 -19 -31 -34 -36 -41 -43 -58 0
-21 -38 -45 -60 -65 -66 -13 -14 -17 -19 -20 -31 -34 -36 -37 -41 -43 -44 -58 -59 -64 0
-66 -65 -60 -45 -38 -21 -64 -59 -44 -37 -20 -58 -43 -36 -19 -41 -34 -17 -31 -14 -13 0
-13 -14 -18 -19 -20 -21 -31 -35 -36 -37 -38 -42 -43 -44 -45 -61 -62 -63 -64 -65 -66 0
-21 -20 -19 -18 -14 -13 -66 -65 -63 -45 -38 -64 -62 -44 -37 -61 -43 -36 -42 -35 -31 0
-13 -38 -37 -36 -35 -31 -21 -20 -19 -18 -14 -66 -65 -63 -45 -64 -62 -44 -61 -43 -42 0
-31 -35 -36 -37 -38 -13 -42 -43 -44 -45 -14 -61 -62 -63 -18 -64 -65 -19 -66 -20 -21 0
-31 -14 -45 -44 -43 -42 -13 -38 -37 -36 -35 -21 -20 -19 -18 -66 -65 -63 -64 -62 -61 0
-42 -43 -44 -45 -14 -31 -61 -62 -63 -18 -35 -64 -65 -19 -36 -66 -20 -37 -21 -38 -13 0
-42 -35 -18 -63 -62 -61 -31 -14 -45 -44 -43 -13 -38 -37 -36 -21 -20 -19 -66 -65 -64 0
-61 -62 -63 -18 -35 -42 -64 -65 -19 -36 -43 -66 -20 -37 -44 -21 -38 -45 -13 -14 -31 0
-61 -43 -36 -19 -65 -64 -42 -35 -18 -63 -62 -31 -14 -45 -44 -13 -38 -37 -21 -20 -66 0
-64 -65 -19 -36 -43 -61 -66 -20 -37 -44 -62 -21 -38 -45 -63 -13 -14 -18 -31 -35 -42 0
-64 -62 -44 -37 -20 -66 -61 -43 -36 -19 -65 -42 -35 -18 -63 -31 -14 -45 -13 -38 -21 0
-66 -20 -37 -44 -62 -64 -21 -38 -45 -63 -65 -13 -14 -18 -19 -31 -35 -36 -42 -43 -61 0
-21 -38 -45 -63 -65 -66 -13 -14 -18 -19 -20 -31 -35 -36 -37 -42 -43 -44 -61 -62 -64 0
-66 -65 -63 -45 -38 -21 -64 -62 -44 -37 -20 -61 -43 -36 -19 -42 -35 -18 -31 -14 -13 0
-13 -15 -16 -17 -18 -19 -32 -33 -34 -35 -36 -46 -47 -48 -49 -52 -53 -54 -57 -58 -61 0
-19 -18 -17 -16 -15 -13 -61 -58 -54 -49 -36 -57 -53 -48 -35 -52 -47 -34 -46 -33 -32 0
-13 -36 -35 -34 -33 -32 -19 -18 -17 -16 -15 -61 -58 -54 -49 -57 -53 -48 -52 -47 -46 0
-32 -33 -34 -35 -36 -13 -46 -47 -48 -49 -15 -52 -53 -54 -16 -57 -58 -17 -61 -18 -19 0
-32 -15 -49 -48 -47 -46 -13 -36 -35 -34 -33 -19 -18 -17 -16 -61 -58 -54 -57 -53 -52 0
-46 -47 -48 -49 -15 -32 -52 -53 -54 -16 -33 -57 -58 -17 -34 -61 -18 -35 -19 -36 -13 0
-46 -33 -16 -54 -53 -52 -32 -15 -49 -48 -47 -13 -36 -35 -34 -19 -18 -17 -61 -58 -57 0
-52 -53 -54 -16 -33 -46 -57 -58 -17 -34 -47 -61 -18 -35 -48 -19 -36 -49 -13 -15 -32 0
-52 -47 -34 -17 -58 -57 -46 -33 -16 -54 -53 -32 -15 -49 -48 -13 -36 -35 -19 -18 -61 0
-57 -58 -17 -34 -47 -52 -61 -18 -35 -48 -53 -19 -36 -49 -54 -13 -15 -16 -32 -33 -46 0
-57 -53 -48 -35 -18 -61 -52 -47 -34 -17 -58 -46 -33 -16 -54 -32 -15 -49 -13 -36 -19 0
-61 -18 -35 -48 -53 -57 -19 -36 -49 -54 -58 -13 -15 -16 -17 -32 -33 -34 -46 -47 -52 0
-19 -36 -49 -54 -58 -61 -13 -15 -16 -17 -18 -32 -33 -34 -35 -46 -47 -48 -52 -53 -57 0
-61 -58 -54 -49 -36 -19 -57 -53 -48 -35 -18 -52 -47 -34 -17 -46 -33 -16 -32 -15 -13 0
-13 -15 -16 -17 -18 -20 -32 -33 -34 -35 -37 -46 -47 -48 -50 -52 -53 -55 -57 -59 -62 0
-20 -18 -17 -16 -15 -13 -62 -59 -55 -50 -37 -57 -53 -48 -35 -52 -47 -34 -46 -33 -32 0
-13 -37 -35 -34 -33 -32 -20 -18 -17 -16 -15 -62 -59 -55 -50 -57 -53 -48 -52 -47 -46 0
-32 -33 -34 -35 -37 -13 -46 -47 -48 -50 -15 -52 -53 -55 -16 -57 -59 -17 -62 -18 -20 0
-32 -15 -50 -48 -47 -46 -13 -37 -35 -34 -33 -20 -18 -17 -16 -62 -59 -55 -57 -53 -52 0
-46 -47 -48 -50 -15 -32 -52 -53 -55 -16 -33 -57 -59 -17 -34 -62 -18 -35 -20 -37 -13 0
-46 -33 -16 -55 -53 -52 -32 -15 -50 -48 -47 -13 -37 -35 -34 -20 -18 -17 -62 -59 -57 0
-52 -53 -55 -16 -33 -46 -57 -59 -17 -34 -47 -62 -18 -35 -48 -20 -37 -50 -13 -15 -32 0
-52 -47 -34 -17 -59 -57 -46 -33 -16 -55 -53 -32 -15 -50 -48 -13 -37 -35 -20 -18 -62 0
-57 -59 -17 -34 -47 -52 -62 -18 -35 -48 -53 -20 -37 -50 -55 -13 -15 -16 -32 -33 -46 0
-57 -53 -48 -35 -18 -62 -52 -47 -34 -17 -59 -46 -33 -16 -55 -32 -15 -50 -13 -37 -20 0
-62 -18 -35 -48 -53 -57 -20 -37 -50 -55 -59 -13 -15 -16 -17 -32 -33 -34 -46 -47 -52 0
-20 -37 -50 -55 -59 -62 -13 -15 -16 -17 -18 -32 -33 -34 -35 -46 -47 -48 -52 -53 -57 0
-62 -59 -55 -50 -37 -20 -57 -53 -48 -35 -18 -52 -47 -34 -17 -46 -33 -16 -32 -15 -13 0
-13 -15 -16 -17 -18 -21 -32 -33 -34 -35 -38 -46 -47 -48 -51 -52 -53 -56 -57 -60 -63 0
-21 -18 -17 -16 -15 -13 -63 -60 -56 -51 -38 -57 -53 -48 -35 -52 -47 -34 -46 -33 -32 0
-13 -38 -35 -34 -33 -32 -21 -18 -17 -16 -15 -63 -60 -56 -51 -57 -53 -48 -52 -47 -46 0
-32 -33 -34 -35 -38 -13 -46 -47 -48 -51 -15 -52 -53 -56 -16 -57 -60 -17 -63 -18 -21 0
-32 -15 -51 -48 -47 -46 -13 -38 -35 -34 -33 -21 -18 -17 -16 -63 -60 -56 -57 -53 -52 0
-46 -47 -48 -51 -15 -32 -52 -53 -56 -16 -33 -57 -60 -17 -34 -63 -18 -35 -21 -38 -13 0
-46 -33 -16 -56 -53 -52 -32 -15 -51 -48 -47 -13 -38 -35 -34 -21 -18 -17 -63 -60 -57 0
-52 -53 -56 -16 -33 -46 -57 -60 -17 -34 -47 -63 -18 -35 -48 -21 -38 -51 -13 -15 -32 0
-52 -47 -34 -17 -60 -57 -46 -33 -16 -56 -53 -32 -15 -51 -48 -13 -38 -35 -21 -18 -63 0
-57 -60 -17 -34 -47 -52 -63 -18 -35 -48 -53 -21 -38 -51 -56 -13 -15 -16 -32 -33 -46 0
-57 -53 -48 -35 -18 -63 -52 -47 -34 -17 -60 -46 -33 -16 -56 -32 -15 -51 -13 -38 -21 0
-63 -18 -35 -48 -53 -57 -21 -38 -51 -56 -60 -13 -15 -16 -17 -32 -33 -34 -46 -47 -52 0
-21 -38 -51 -56 -60 -63 -13 -15 -16 -17 -18 -32 -33 -34 -35 -46 -47 -48 -52 -53 -57 0
-63 -60 -56 -51 -38 -21 -57 -53 -48 -35 -18 -52 -47 -34 -17 -46 -33 -16 -32 -15 -13 0
-13 -15 -16 -17 -19 -20 -32 -33 -34 -36 -37 -46 -47 -49 -50 -52 -54 -55 -58 -59 -64 0
-20 -19 -17 -16 -15 -13 -64 -59 -55 -50 -37 -58 -54 -49 -36 -52 -47 -34 -46 -33 -32 0
-13 -37 -36 -34 -33 -32 -20 -19 -17 -16 -15 -64 -59 -55 -50 -58 -54 -49 -52 -47 -46 0
-32 -33 -34 -36 -37 -13 -46 -47 -49 -50 -15 -52 -54 -55 -16 -58 -59 -17 -64 -19 -20 0
-32 -15 -50 -49 -47 -46 -13 -37 -36 -34 -33 -20 -19 -17 -16 -64 -59 -55 -58 -54 -52 0
-46 -47 -49 -50 -15 -32 -52 -54 -55 -16 -33 -58 -59 -17 -34 -64 -19 -36 -20 -37 -13 0
-46 -33 -16 -55 -54 -52 -32 -15 -50 -49 -47 -13 -37 -36 -34 -20 -19 -17 -64 -59 -58 0
-52 -54 -55 -16 -33 -46 -58 -59 -17 -34 -47 -64 -19 -36 -49 -20 -37 -50 -13 -15 -32 0
-52 -47 -34 -17 -59 -58 -46 -33 -16 -55 -54 -32 -15 -50 -49 -13 -37 -36 -20 -19 -64 0
-58 -59 -17 -34 -47 -52 -64 -19 -36 -49 -54 -20 -37 -50 -55 -13 -15 -16 -32 -33 -46 0
-58 -54 -49 -36 -19 -64 -52 -47 -34 -17 -59 -46 -33 -16 -55 -32 -15 -50 -13 -37 -20 0
-64 -19 -36 -49 -54 -58 -20 -37 -50 -55 -59 -13 -15 -16 -17 -32 -33 -34 -46 -47 -52 0
-20 -37 -50 -55 -59 -64 -13 -15 -16 -17 -19 -32 -33 -34 -36 -46 -47 -49 -52 -54 -58 0
-64 -59 -55 -50 -37 -20 -58 -54 -49 -36 -19 -52 -47 -34 -17 -46 -33 -16 -32 -15 -13 0
-13 -15 -16 -17 -19 -21 -32 -33 -34 -36 -38 -46 -47 -49 -51 -52 -54 -56 -58 -60 -65 0
-21 -19 -17 -16 -15 -13 -65 -60 -56 -51 -38 -58 -54 -49 -36 -52 -47 -34 -46 -33 -32 0
-13 -38 -36 -34 -33 -32 -21 -19 -17 -16 -15 -65 -60 -56 -51 -58 -54 -49 -52 -47 -46 0
-32 -33 -34 -36 -38 -13 -46 -47 -49 -51 -15 -52 -54 -56 -16 -58 -60 -17 -65 -19 -21 0
-32 -15 -51 -49 -47 -46 -13 -38 -36 -34 -33 -21 -19 -17 -16 -65 -60 -56 -58 -54 -52 0
-46 -47 -49 -51 -15 -32 -52 -54 -56 -16 -33 -58 -60 -17 -34 -65 -19 -36 -21 -38 -13 0
-46 -33 -16 -56 -54 -52 -32 -15 -51 -49 -47 -13 -38 -36 -34 -21 -19 -17 -65 -60 -58 0
-52 -54 -56 -16 -33 -46 -58 -60 -17 -34 -47 -65 -19 -36 -49 -21 -38 -51 -13 -15 -32 0
-52 -47 -34 -17 -60 -58 -46 -33 -16 -56 -54 -32 -15 -51 -49 -13 -38 -36 -21 -19 -65 0
-58 -60 -17 -34 -47 -52 -65 -19 -36 -49 -54 -21 -38 -51 -56 -13 -15 -16 -32 -33 -46 0
-58 -54 -49 -36 -19 -65 -52 -47 -34 -17 -60 -46 -33 -16 -56 -32 -15 -51 -13 -38 -21 0
-65 -19 -36 -49 -54 -58 -21 -38 -51 -56 -60 -13 -15 -16 -17 -32 -33 -34 -46 -47 -52 0
-21 -38 -51 -56 -60 -65 -13 -15 -16 -17 -19 -32 -33 -34 -36 -46 -47 -49 -52 -54 -58 0
-65 -60 -56 -51 -38 -21 -58 -54 -49 -36 -19 -52 -47 -34 -17 -46 -33 -16 -32 -15 -13 0
-13 -15 -16 -17 -20 -21 -32 -33 -34 -37 -38 -46 -47 -50 -51 -52 -55 -56 -59 -60 -66 0
-21 -20 -17 -16 -15 -13 -66 -60 -56 -51 -38 -59 -55 -50 -37 -52 -47 -34 -46 -33 -32 0
-13 -38 -37 -34 -33 -32 -21 -20 -17 -16 -15 -66 -60 -56 -51 -59 -55 -50 -52 -47 -46 0
-32 -33 -34 -37 -38 -13 -46 -47 -50 -51 -15 -52 -55 -56 -16 -59 -60 -17 -66 -20 -21 0
-32 -15 -51 -50 -47 -46 -13 -38 -37 -34 -33 -21 -20 -17 -16 -66 -60 -56 -59 -55 -52 0
-46 -47 -50 -51 -15 -32 -52 -55 -56 -16 -33 -59 -60 -17 -34 -66 -20 -37 -21 -38 -13 0
-46 -33 -16 -56 -55 -52 -32 -15 -51 -50 -47 -13 -38 -37 -34 -21 -20 -17 -66 -60 -59 0
-52 -55 -56 -16 -33 -46 -59 -60 -17 -34 -47 -66 -20 -37 -50 -21 -38 -51 -13 -15 -32 0
-52 -47 -34 -17 -60 -59 -46 -33 -16 -56 -55 -32 -15 -51 -50 -13 -38 -37 -21 -20 -66 0
-59 -60 -17 -34 -47 -52 -66 -20 -37 -50 -55 -21 -38 -51 -56 -13 -15 -16 -32 -33 -46 0
-59 -55 -50 -37 -20 -66 -52 -47 -34 -17 -60 -46 -33 -16 -56 -32 -15 -51 -13 -38 -21 0
-66 -20 -37 -50 -55 -59 -21 -38 -51 -56 -60 -13 -15 -16 -17 -32 -33 -34 -46 -47 -52 0
-21 -38 -51 -56 -60 -66 -13 -15 -16 -17 -20 -32 -33 -34 -37 -46 -47 -50 -52 -55 -59 0
-66 -60 -56 -51 -38 -21 -59 -55 -50 -37 -20 -52 -47 -34 -17 -46 -33 -16 -32 -15 -13 0
-13 -15 -16 -18 -19 -20 -32 -33 -35 -36 -37 -46 -48 -49 -50 -53 -54 -55 -61 -62 -64 0
-20 -19 -18 -16 -15 -13 -64 -62 -55 -50 -37 -61 -54 -49 -36 -53 -48 -35 -46 -33 -32 0
-13 -37 -36 -35 -33 -32 -20 -19 -18 -16 -15 -64 -62 -55 -50 -61 -54 -49 -53 -48 -46 0
-32 -33 -35 -36 -37 -13 -46 -48 -49 -50 -15 -53 -54 -55 -16 -61 -62 -18 -64 -19 -20 0
-32 -15 -50 -49 -48 -46 -13 -37 -36 -35 -33 -20 -19 -18 -16 -64 -62 -55 -61 -54 -53 0
-46 -48 -49 -50 -15 -32 -53 -54 -55 -16 -33 -61 -62 -18 -35 -64 -19 -36 -20 -37 -13 0
-46 -33 -16 -55 -54 -53 -32 -15 -50 -49 -48 -13 -37 -36 -35 -20 -19 -18 -64 -62 -61 0
-53 -54 -55 -16 -33 -46 -61 -62 -18 -35 -48 -64 -19 -36 -49 -20 -37 -50 -13 -15 -32 0
-53 -48 -35 -18 -62 -61 -46 -33 -16 -55 -54 -32 -15 -50 -49 -13 -37 -36 -20 -19 -64 0
-61 -62 -18 -35 -48 -53 -64 -19 -36 -49 -54 -20 -37 -50 -55 -13 -15 -16 -32 -33 -46 0
-61 -54 -49 -36 -19 -64 -53 -48 -35 -18 -62 -46 -33 -16 -55 -32 -15 -50 -13 -37 -20 0
-64 -19 -36 -49 -54 -61 -20 -37 -50 -55 -62 -13 -15 -16 -18 -32 -33 -35 -46 -48 -53 0
-20 -37 -50 -55 -62 -64 -13 -15 -16 -18 -19 -32 -33 -35 -36 -46 -48 -49 -53 -54 -61 0
-64 -62 -55 -50 -37 -20 -61 -54 -49 -36 -19 -53 -48 -35 -18 -46 -33 -16 -32 -15 -13 0
-13 -15 -16 -18 -19 -21 -32 -33 -35 -36 -38 -46 -48 -49 -51 -53 -54 -56 -61 -63 -65 0
-21 -19 -18 -16 -15 -13 -65 -63 -56 -51 -38 -61 -54 -49 -36 -53 -48 -35 -46 -33 -32 0
-13 -38 -36 -35 -33 -32 -21 -19 -18 -16 -15 -65 -63 -56 -51 -61 -54 -49 -53 -48 -46 0
-32 -33 -35 -36 -38 -13 -46 -48 -49 -51 -15 -53 -54 -56 -16 -61 -63 -18 -65 -19 -21 0
-32 -15 -51 -49 -48 -46 -13 -38 -36 -35 -33 -21 -19 -18 -16 -65 -63 -56 -61 -54 -53 0
-46 -48 -49 -51 -15 -32 -53 -54 -56 -16 -33 -61 -63 -18 -35 -65 -19 -36 -21 -38 -13 0
-46 -33 -16 -56 -54 -53 -32 -15 -51 -49 -48 -13 -38 -36 -35 -21 -19 -18 -65 -63 -61 0
-53 -54 -56 -16 -33 -46 -61 -63 -18 -35 -48 -65 -19 -36 -49 -21 -38 -51 -13 -15 -32 0
-53 -48 -35 -18 -63 -61 -46 -33 -16 -56 -54 -32 -15 -51 -49 -13 -38 -36 -21 -19 -65 0
-61 -63 -18 -35 -48 -53 -65 -19 -36 -49 -54 -21 -38 -51 -56 -13 -15 -16 -32 -33 -46 0
-61 -54 -49 -36 -19 -65 -53 -48 -35 -18 -63 -46 -33 -16 -56 -32 -15 -51 -13 -38 -21 0
-65 -19 -36 -49 -54 -61 -21 -38 -51 -56 -63 -13 -15 -16 -18 -32 -33 -35 -46 -48 -53 0
-21 -38 -51 -56 -63 -65 -13 -15 -16 -18 -19 -32 -33 -35 -36 -46 -48 -49 -53 -54 -61 0
-65 -63 -56 -51 -38 -21 -61 -54 -49 -36 -19 -53 -48 -35 -18 -46 -33 -16 -32 -15 -13 0
-13 -15 -16 -18 -20 -21 -32 -33 -35 -37 -38 -46 -48 -50 -51 -53 -55 -56 -62 -63 -66 0
-21 -20 -18 -16 -15 -13 -66 -63 -56 -51 -38 -62 -55 -50 -37 -53 -48 -35 -46 -33 -32 0
-13 -38 -37 -35 -33 -32 -21 -20 -18 -16 -15 -66 -63 -56 -51 -62 -55 -50 -53 -48 -46 0
-32 -33 -35 -37 -38 -13 -46 -48 -50 -51 -15 -53 -55 -56 -16 -62 -63 -18 -66 -20 -21 0
-32 -15 -51 -50 -48 -46 -13 -38 -37 -35 -33 -21 -20 -18 -16 -66 -63 -56 -62 -55 -53 0
-46 -48 -50 -51 -15 -32 -53 -55 -56 -16 -33 -62 -63 -18 -35 -66 -20 -37 -21 -38 -13 0
-46 -33 -16 -56 -55 -53 -32 -15 -51 -50 -48 -13 -38 -37 -35 -21 -20 -18 -66 -63 -62 0
-53 -55 -56 -16 -33 -46 -62 -63 -18 -35 -48 -66 -20 -37 -50 -21 -38 -51 -13 -15 -32 0
-53 -48 -35 -18 -63 -62 -46 -33 -16 -56 -55 -32 -15 -51 -50 -13 -38 -37 -21 -20 -66 0
-62 -63 -18 -35 -48 -53 -66 -20 -37 -50 -55 -21 -38 -51 -56 -13 -15 -16 -32 -33 -46 0
-62 -55 -50 -37 -20 -66 -53 -48 -35 -18 -63 -46 -33 -16 -56 -32 -15 -51 -13 -38 -21 0
-66 -20 -37 -50 -55 -62 -21 -38 -51 -56 -63 -13 -15 -16 -18 -32 -33 -35 -46 -48 -53 0
-21 -38 -51 -56 -63 -66 -13 -15 -16 -18 -20 -32 -33 -35 -37 -46 -48 -50 -53 -55 -62 0
-66 -63 -56 -51 -38 -21 -62 -55 -50 -37 -20 -53 -48 -35 -18 -46 -33 -16 -32 -15 -13 0
-13 -15 -16 -19 -20 -21 -32 -33 -36 -37 -38 -46 -49 -50 -51 -54 -55 -56 -64 -65 -66 0
-21 -20 -19 -16 -15 -13 -66 -65 -56 -51 -38 -64 -55 -50 -37 -54 -49 -36 -46 -33 -32 0
-13 -38 -37 -36 -33 -32 -21 -20 -19 -16 -15 -66 -65 -56 -51 -64 -55 -50 -54 -49 -46 0
-32 -33 -36 -37 -38 -13 -46 -49 -50 -51 -15 -54 -55 -56 -16 -64 -65 -19 -66 -20 -21 0
-32 -15 -51 -50 -49 -46 -13 -38 -37 -36 -33 -21 -20 -19 -16 -66 -65 -56 -64 -55 -54 0
-46 -49 -50 -51 -15 -32 -54 -55 -56 -16 -33 -64 -65 -19 -36 -66 -20 -37 -21 -38 -13 0
-46 -33 -16 -56 -55 -54 -32 -15 -51 -50 -49 -13 -38 -37 -36 -21 -20 -19 -66 -65 -64 0
-54 -55 -56 -16 -33 -46 -64 -65 -19 -36 -49 -66 -20 -37 -50 -21 -38 -51 -13 -15 -32 0
-54 -49 -36 -19 -65 -64 -46 -33 -16 -56 -55 -32 -15 -51 -50 -13 -38 -37 -21 -20 -66 0
-64 -65 -19 -36 -49 -54 -66 -20 -37 -50 -55 -21 -38 -51 -56 -13 -15 -16 -32 -33 -46 0
-64 -55 -50 -37 -20 -66 -54 -49 -36 -19 -65 -46 -33 -16 -56 -32 -15 -51 -13 -38 -21 0
-66 -20 -37 -50 -55 -64 -21 -38 -51 -56 -65 -13 -15 -16 -19 -32 -33 -36 -46 -49 -54 0
-21 -38 -51 -56 -65 -66 -13 -15 -16 -19 -20 -32 -33 -36 -37 -46 -49 -50 -54 -55 -64 0
-66 -65 -56 -51 -38 -21 -64 -55 -50 -37 -20 -54 -49 -36 -19 -46 -33 -16 -32 -15 -13 0
-13 -15 -17 -18 -19 -20 -32 -34 -35 -36 -37 -47 -48 -49 -50 -57 -58 -59 -61 -62 -64 0
-20 -19 -18 -17 -15 -13 -64 -62 -59 -50 -37 -61 -58 -49 -36 -57 -48 -35 -47 -34 -32 0
-13 -37 -36 -35 -34 -32 -20 -19 -18 -17 -15 -64 -62 -59 -50 -61 -58 -49 -57 -48 -47 0
-32 -34 -35 -36 -37 -13 -47 -48 -49 -50 -15 -57 -58 -59 -17 -61 -62 -18 -64 -19 -20 0
-32 -15 -50 -49 -48 -47 -13 -37 -36 -35 -34 -20 -19 -18 -17 -64 -62 -59 -61 -58 -57 0
-47 -48 -49 -50 -15 -32 -57 -58 -59 -17 -34 -61 -62 -18 -35 -64 -19 -36 -20 -37 -13 0
-47 -34 -17 -59 -58 -57 -32 -15 -50 -49 -48 -13 -37 -36 -35 -20 -19 -18 -64 -62 -61 0
-57 -58 -59 -17 -34 -47 -61 -62 -18 -35 -48 -64 -19 -36 -49 -20 -37 -50 -13 -15 -32 0
-57 -48 -35 -18 -62 -61 -47 -34 -17 -59 -58 -32 -15 -50 -49 -13 -37 -36 -20 -19 -64 0
-61 -62 -18 -35 -48 -57 -64 -19 -36 -49 -58 -20 -37 -50 -59 -13 -15 -17 -32 -34 -47 0
-61 -58 -49 -36 -19 -64 -57 -48 -35 -18 -62 -47 -34 -17 -59 -32 -15 -50 -13 -37 -20 0
-64 -19 -36 -49 -58 -61 -20 -37 -50 -59 -62 -13 -15 -17 -18 -32 -34 -35 -47 -48 -57 0
-20 -37 -50 -59 -62 -64 -13 -15 -17 -18 -19 -32 -34 -35 -36 -47 -48 -49 -57 -58 -61 0
-64 -62 -59 -50 -37 -20 -61 -58 -49 -36 -19 -57 -48 -35 -18 -47 -34 -17 -32 -15 -13 0
-13 -15 -17 -18 -19 -21 -32 -34 -35 -36 -38 -47 -48 -49 -51 -57 -58 -60 -61 -63 -65 0
-21 -19 -18 -17 -15 -13 -65 -63 -60 -51 -38 -61 -58 -49 -36 -57 -48 -35 -47 -34 -32 0
-13 -38 -36 -35 -34 -32 -21 -19 -18 -17 -15 -65 -63 -60 -51 -61 -58 -49 -57 -48 -47 0
-32 -34 -35 -36 -38 -13 -47 -48 -49 -51 -15 -57 -58 -60 -17 -61 -63 -18 -65 -19 -21 0
-32 -15 -51 -49 -48 -47 -13 -38 -36 -35 -34 -21 -19 -18 -17 -65 -63 -60 -61 -58 -57 0
-47 -48 -49 -51 -15 -32 -57 -58 -60 -17 -34 -61 -63 -18 -35 -65 -19 -36 -21 -38 -13 0
-47 -34 -17 -60 -58 -57 -32 -15 -51 -49 -48 -13 -38 -36 -35 -21 -19 -18 -65 -63 -61 0
-57 -58 -60 -17 -34 -47 -61 -63 -18 -35 -48 -65 -19 -36 -49 -21 -38 -51 -13 -15 -32 0
-57 -48 -35 -18 -63 -61 -47 -34 -17 -60 -58 -32 -15 -51 -49 -13 -38 -36 -21 -19 -65 0
-61 -63 -18 -35 -48 -57 -65 -19 -36 -49 -58 -21 -38 -51 -60 -13 -15 -17 -32 -34 -47 0
-61 -58 -49 -36 -19 -65 -57 -48 -35 -18 -63 -47 -34 -17 -60 -32 -15 -51 -13 -38 -21 0
-65 -19 -36 -49 -58 -61 -21 -38 -51 -60 -63 -13 -15 -17 -18 -32 -34 -35 -47 -48 -57 0
-21 -38 -51 -60 -63 -65 -13 -15 -17 -18 -19 -32 -34 -35 -36 -47 -48 -49 -57 -58 -61 0
-65 -63 -60 -51 -38 -21 -61 -58 -49 -36 -19 -57 -48 -35 -18 -47 -34 -17 -32 -15 -13 0
-13 -15 -17 -18 -20 -21 -32 -34 -35 -37 -38 -47 -48 -50 -51 -57 -59 -60 -62 -63 -66 0
-21 -20 -18 -17 -15 -13 -66 -63 -60 -51 -38 -62 -59 -50 -37 -57 -48 -35 -47 -34 -32 0
-13 -38 -37 -35 -34 -32 -21 -20 -18 -17 -15 -66 -63 -60 -51 -62 -59 -50 -57 -48 -47 0
-32 -34 -35 -37 -38 -13 -47 -48 -50 -51 -15 -57 -59 -60 -17 -62 -63 -18 -66 -20 -21 0
-32 -15 -51 -50 -48 -47 -13 -38 -37 -35 -34 -21 -20 -18 -17 -66 -63 -60 -62 -59 -57 0
-47 -48 -50 -51 -15 -32 -57 -59 -60 -17 -34 -62 -63 -18 -35 -66 -20 -37 -21 -38 -13 0
-47 -34 -17 -60 -59 -57 -32 -15 -51 -50 -48 -13 -38 -37 -35 -21 -20 -18 -66 -63 -62 0
-57 -59 -60 -17 -34 -47 -62 -63 -18 -35 -48 -66 -20 -37 -50 -21 -38 -51 -13 -15 -32 0
-57 -48 -35 -18 -63 -62 -47 -34 -17 -60 -59 -32 -15 -51 -50 -13 -38 -37 -21 -20 -66 0
-62 -63 -18 -35 -48 -57 -66 -20 -37 -50 -59 -21 -38 -51 -60 -13 -15 -17 -32 -34 -47 0
-62 -59 -50 -37 -20 -66 -57 -48 -35 -18 -63 -47 -34 -17 -60 -32 -15 -51 -13 -38 -21 0
-66 -20 -37 -50 -59 -62 -21 -38 -51 -60 -63 -13 -15 -17 -18 -32 -34 -35 -47 -48 -57 0
-21 -38 -51 -60 -63 -66 -13 -15 -17 -18 -20 -32 -34 -35 -37 -47 -48 -50 -57 -59 -62 0
-66 -63 -60 -51 -38 -21 -62 -59 -50 -37 -20 -57 -48 -35 -18 -47 -34 -17 -32 -15 -13 0
-13 -15 -17 -19 -20 -21 -32 -34 -36 -37 -38 -47 -49 -50 -51 -58 -59 -60 -64 -65 -66 0
-21 -20 -19 -17 -15 -13 -66 -65 -60 -51 -38 -64 -59 -50 -37 -58 -49 -36 -47 -34 -32 0
-13 -38 -37 -36 -34 -32 -21 -20 -19 -17 -15 -66 -65 -60 -51 -64 -59 -50 -58 -49 -47 0
-32 -34 -36 -37 -38 -13 -47 -49 -50 -51 -15 -58 -59 -60 -17 -64 -65 -19 -66 -20 -21 0
-32 -15 -51 -50 -49 -47 -13 -38 -37 -36 -34 -21 -20 -19 -17 -66 -65 -60 -64 -59 -58 0
-47 -49 -50 -51 -15 -32 -58 -59 -60 -17 -34 -64 -65 -19 -36 -66 -20 -37 -21 -38 -13 0
-47 -34 -17 -60 -59 -58 -32 -15 -51 -50 -49 -13 -38 -37 -36 -21 -20 -19 -66 -65 -64 0
-58 -59 -60 -17 -34 -47 -64 -65 -19 -36 -49 -66 -20 -37 -50 -21 -38 -51 -13 -15 -32 0
-58 -49 -36 -19 -65 -64 -47 -34 -17 -60 -59 -32 -15 -51 -50 -13 -38 -37 -21 -20 -66 0
-64 -65 -19 -36 -49 -58 -66 -20 -37 -50 -59 -21 -38 -51 -60 -13 -15 -17 -32 -34 -47 0
-64 -59 -50 -37 -20 -66 -58 -49 -36 -19 -65 -47 -34 -17 -60 -32 -15 -51 -13 -38 -21 0
-66 -20 -37 -50 -59 -64 -21 -38 -51 -60 -65 -13 -15 -17 -19 -32 -34 -36 -47 -49 -58 0
-21 -38 -51 -60 -65 -66 -13 -15 -17 -19 -20 -32 -34 -36 -37 -47 -49 -50 -58 -59 -64 0
-66 -65 -60 -51 -38 -21 -64 -59 -50 -37 -20 -58 -49 -36 -19 -47 -34 -17 -32 -15 -13 0
-13 -15 -18 -19 -20 -21 -32 -35 -36 -37 -38 -48 -49 -50 -51 -61 -62 -63 -64 -65 -66 0
-21 -20 -19 -18 -15 -13 -66 -65 -63 -51 -38 -64 -62 -50 -37 -61 -49 -36 -48 -35 -32 0
-13 -38 -37 -36 -35 -32 -21 -20 -19 -18 -15 -66 -65 -63 -51 -64 -62 -50 -61 -49 -48 0
-32 -35 -36 -37 -38 -13 -48 -49 -50 -51 -15 -61 -62 -63 -18 -64 -65 -19 -66 -20 -21 0
-32 -15 -51 -50 -49 -48 -13 -38 -37 -36 -35 -21 -20 -19 -18 -66 -65 -63 -64 -62 -61 0
-48 -49 -50 -51 -15 -32 -61 -62 -63 -18 -35 -64 -65 -19 -36 -66 -20 -37 -21 -38 -13 0
-48 -35 -18 -63 -62 -61 -32 -15 -51 -50 -49 -13 -38 -37 -36 -21 -20 -19 -66 -65 -64 0
-61 -62 -63 -18 -35 -48 -64 -65 -19 -36 -49 -66 -20 -37 -50 -21 -38 -51 -13 -15 -32 0
-61 -49 -36 -19 -65 -64 -48 -35 -18 -63 -62 -32 -15 -51 -50 -13 -38 -37 -21 -20 -66 0
-64 -65 -19 -36 -49 -61 -66 -20 -37 -50 -62 -21 -38 -51 -63 -13 -15 -18 -32 -35 -48 0
-64 -62 -50 -37 -20 -66 -61 -49 -36 -19 -65 -48 -35 -18 -63 -32 -15 -51 -13 -38 -21 0
-66 -20 -37 -50 -62 -64 -21 -38 -51 -63 -65 -13 -15 -18 -19 -32 -35 -36 -48 -49 -61 0
-21 -38 -51 -63 -65 -66 -13 -15 -18 -19 -20 -32 -35 -36 -37 -48 -49 -50 -61 -62 -64 0
-66 -65 -63 -51 -38 -21 -64 -62 -50 -37 -20 -61 -49 -36 -19 -48 -35 -18 -32 -15 -13 0
-13 -16 -17 -18 -19 -20 -33 -34 -35 -36 -37 -52 -53 -54 -55 -57 -58 -59 -61 -62 -64 0
-20 -19 -18 -17 -16 -13 -64 -62 -59 -55 -37 -61 -58 -54 -36 -57 -53 -35 -52 -34 -33 0
-13 -37 -36 -35 -34 -33 -20 -19 -18 -17 -16 -64 -62 -59 -55 -61 -58 -54 -57 -53 -52 0
-33 -34 -35 -36 -37 -13 -52 -53 -54 -55 -16 -57 -58 -59 -17 -61 -62 -18 -64 -19 -20 0
-33 -16 -55 -54 -53 -52 -13 -37 -36 -35 -34 -20 -19 -18 -17 -64 -62 -59 -61 -58 -57 0
-52 -53 -54 -55 -16 -33 -57 -58 -59 -17 -34 -61 -62 -18 -35 -64 -19 -36 -20 -37 -13 0
-52 -34 -17 -59 -58 -57 -33 -16 -55 -54 -53 -13 -37 -36 -35 -20 -19 -18 -64 -62 -61 0
-57 -58 -59 -17 -34 -52 -61 -62 -18 -35 -53 -64 -19 -36 -54 -20 -37 -55 -13 -16 -33 0
-57 -53 -35 -18 -62 -61 -52 -34 -17 -59 -58 -33 -16 -55 -54 -13 -37 -36 -20 -19 -64 0
-61 -62 -18 -35 -53 -57 -64 -19 -36 -54 -58 -20 -37 -55 -59 -13 -16 -17 -33 -34 -52 0
-61 -58 -54 -36 -19 -64 -57 -53 -35 -18 -62 -52 -34 -17 -59 -33 -16 -55 -13 -37 -20 0
-64 -19 -36 -54 -58 -61 -20 -37 -55 -59 -62 -13 -16 -17 -18 -33 -34 -35 -52 -53 -57 0
-20 -37 -55 -59 -62 -64 -13 -16 -17 -18 -19 -33 -34 -35 -36 -52 -53 -54 -57 -58 -61 0
-64 -62 -59 -55 -37 -20 -61 -58 -54 -36 -19 -57 -53 -35 -18 -52 -34 -17 -33 -16 -13 0
-13 -16 -17 -18 -19 -21 -33 -34 -35 -36 -38 -52 -53 -54 -56 -57 -58 -60 -61 -63 -65 0
-21 -19 -18 -17 -16 -13 -65 -63 -60 -56 -38 -61 -58 -54 -36 -57 -53 -35 -52 -34 -33 0
-13 -38 -36 -35 -34 -33 -21 -19 -18 -17 -16 -65 -63 -60 -56 -61 -58 -54 -57 -53 -52 0
-33 -34 -35 -36 -38 -13 -52 -53 -54 -56 -16 -57 -58 -60 -17 -61 -63 -18 -65 -19 -21 0
-33 -16 -56 -54 -53 -52 -13 -38 -36 -35 -34 -21 -19 -18 -17 -65 -63 -60 -61 -58 -57 0
-52 -53 -54 -56 -16 -33 -57 -58 -60 -17 -34 -61 -63 -18 -35 -65 -19 -36 -21 -38 -13 0
-52 -34 -17 -60 -58 -57 -33 -16 -56 -54 -53 -13 -38 -36 -35 -21 -19 -18 -65 -63 -61 0
-57 -58 -60 -17 -34 -52 -61 -63 -18 -35 -53 -65 -19 -36 -54 -21 -38 -56 -13 -16 -33 0
-57 -53 -35 -18 -63 -61 -52 -34 -17 -60 -58 -33 -16 -56 -54 -13 -38 -36 -21 -19 -65 0
-61 -63 -18 -35 -53 -57 -65 -19 -36 -54 -58 -21 -38 -56 -60 -13 -16 -17 -33 -34 -52 0
-61 -58 -54 -36 -19 -65 -57 -53 -35 -18 -63 -52 -34 -17 -60 -33 -16 -56 -13 -38 -21 0
-65 -19 -36 -54 -58 -61 -21 -38 -56 -60 -63 -13 -16 -17 -18 -33 -34 -35 -52 -53 -57 0
-21 -38 -56 -60 -63 -65 -13 -16 -17 -18 -19 -33 -34 -35 -36 -52 -53 -54 -57 -58 -61 0
-65 -63 -60 -56 -38 -21 -61 -58 -54 -36 -19 -57 -53 -35 -18 -52 -34 -17 -33 -16 -13 0
-13 -16 -17 -18 -20 -21 -33 -34 -35 -37 -38 -52 -53 -55 -56 -57 -59 -60 -62 -63 -66 0
-21 -20 -18 -17 -16 -13 -66 -63 -60 -56 -38 -62 -59 -55 -37 -57 -53 -35 -52 -34 -33 0
-13 -38 -37 -35 -34 -33 -21 -20 -18 -17 -16 -66 -63 -60 -56 -62 -59 -55 -57 -53 -52 0
-33 -34 -35 -37 -38 -13 -52 -53 -55 -56 -16 -57 -59 -60 -17 -62 -63 -18 -66 -20 -21 0
-33 -16 -56 -55 -53 -52 -13 -38 -37 -35 -34 -21 -20 -18 -17 -66 -63 -60 -62 -59 -57 0
-52 -53 -55 -56 -16 -33 -57 -59 -60 -17 -34 -62 -63 -18 -35 -66 -20 -37 -21 -38 -13 0
-52 -34 -17 -60 -59 -57 -33 -16 -56 -55 -53 -13 -38 -37 -35 -21 -20 -18 -66 -63 -62 0
-57 -59 -60 -17 -34 -52 -62 -63 -18 -35 -53 -66 -20 -37 -55 -21 -38 -56 -13 -16 -33 0
-57 -53 -35 -18 -63 -62 -52 -34 -17 -60 -59 -33 -16 -56 -55 -13 -38 -37 -21 -20 -66 0
-62 -63 -18 -35 -53 -57 -66 -20 -37 -55 -59 -21 -38 -56 -60 -13 -16 -17 -33 -34 -52 0
-62 -59 -55 -37 -20 -66 -57 -53 -35 -18 -63 -52 -34 -17 -60 -33 -16 -56 -13 -38 -21 0
-66 -20 -37 -55 -59 -62 -21 -38 -56 -60 -63 -13 -16 -17 -18 -33 -34 -35 -52 -53 -57 0
-21 -38 -56 -60 -63 -66 -13 -16 -17 -18 -20 -33 -34 -35 -37 -52 -53 -55 -57 -59 -62 0
-66 -63 -60 -56 -38 -21 -62 -59 -55 -37 -20 -57 -53 -35 -18 -52 -34 -17 -33 -16 -13 0
-13 -16 -17 -19 -20 -21 -33 -34 -36 -37 -38 -52 -54 -55 -56 -58 -59 -60 -64 -65 -66 0
-21 -20 -19 -17 -16 -13 -66 -65 -60 -56 -38 -64 -59 -55 -37 -58 -54 -36 -52 -34 -33 0
-13 -38 -37 -36 -34 -33 -21 -20 -19 -17 -16 -66 -65 -60 -56 -64 -59 -55 -58 -54 -52 0
-33 -34 -36 -37 -38 -13 -52 -54 -55 -56 -16 -58 -59 -60 -17 -64 -65 -19 -66 -20 -21 0
-33 -16 -56 -55 -54 -52 -13 -38 -37 -36 -34 -21 -20 -19 -17 -66 -65 -60 -64 -59 -58 0
-52 -54 -55 -56 -16 -33 -58 -59 -60 -17 -34 -64 -65 -19 -36 -66 -20 -37 -21 -38 -13 0
-52 -34 -17 -60 -59 -58 -33 -16 -56 -55 -54 -13 -38 -37 -36 -21 -20 -19 -66 -65 -64 0
-58 -59 -60 -17 -34 -52 -64 -65 -19 -36 -54 -66 -20 -37 -55 -21 -38 -56 -13 -16 -33 0
-58 -54 -36 -19 -65 -64 -52 -34 -17 -60 -59 -33 -16 -56 -55 -13 -38 -37 -21 -20 -66 0
-64 -65 -19 -36 -54 -58 -66 -20 -37 -55 -59 -21 -38 -56 -60 -13 -16 -17 -33 -34 -52 0
-64 -59 -55 -37 -20 -66 -58 -54 -36 -19 -65 -52 -34 -17 -60 -33 -16 -56 -13 -38 -21 0
-66 -20 -37 -55 -59 -64 -21 -38 -56 -60 -65 -13 -16 -17 -19 -33 -34 -36 -52 -54 -58 0
-21 -38 -56 -60 -65 -66 -13 -16 -17 -19 -20 -33 -34 -36 -37 -52 -54 -55 -58 -59 -64 0
-66 -65 -60 -56 -38 -21 -64 -59 -55 -37 -20 -58 -54 -36 -19 -52 -34 -17 -33 -16 -13 0
-13 -16 -18 -19 -20 -21 -33 -35 -36 -37 -38 -53 -54 -55 -56 -61 -62 -63 -64 -65 -66 0
-21 -20 -19 -18 -16 -13 -66 -65 -63 -56 -38 -64 -62 -55 -37 -61 -54 -36 -53 -35 -33 0
-13 -38 -37 -36 -35 -33 -21 -20 -19 -18 -16 -66 -65 -63 -56 -64 -62 -55 -61 -54 -53 0
-33 -35 -36 -37 -38 -13 -53 -54 -55 -56 -16 -61 -62 -63 -18 -64 -65 -19 -66 -20 -21 0
-33 -16 -56 -55 -54 -53 -13 -38 -37 -36 -35 -21 -20 -19 -18 -66 -65 -63 -64 -62 -61 0
-53 -54 -55 -56 -16 -33 -61 -62 -63 -18 -35 -64 -65 -19 -36 -66 -20 -37 -21 -38 -13 0
-53 -35 -18 -63 -62 -61 -33 -16 -56 -55 -54 -13 -38 -37 -36 -21 -20 -19 -66 -65 -64 0
-61 -62 -63 -18 -35 -53 -64 -65 -19 -36 -54 -66 -20 -37 -55 -21 -38 -56 -13 -16 -33 0
-61 -54 -36 -19 -65 -64 -53 -35 -18 -63 -62 -33 -16 -56 -55 -13 -38 -37 -21 -20 -66 0
-64 -65 -19 -36 -54 -61 -66 -20 -37 -55 -62 -21 -38 -56 -63 -13 -16 -18 -33 -35 -53 0
-64 -62 -55 -37 -20 -66 -61 -54 -36 -19 -65 -53 -35 -18 -63 -33 -16 -56 -13 -38 -21 0
-66 -20 -37 -55 -62 -64 -21 -38 -56 -63 -65 -13 -16 -18 -19 -33 -35 -36 -53 -54 -61 0
-21 -38 -56 -63 -65 -66 -13 -16 -18 -19 -20 -33 -35 -36 -37 -53 -54 -55 -61 -62 -64 0
-66 -65 -63 -56 -38 -21 -64 -62 -55 -37 -20 -61 -54 -36 -19 -53 -35 -18 -33 -16 -13 0
-13 -17 -18 -19 -20 -21 -34 -35 -36 -37 -38 -57 -58 -59 -60 -61 -62 -63 -64 -65 -66 0
-21 -20 -19 -18 -17 -13 -66 -65 -63 -60 -38 -64 -62 -59 -37 -61 -58 -36 -57 -35 -34 0
-13 -38 -37 -36 -35 -34 -21 -20 -19 -18 -17 -66 -65 -63 -60 -64 -62 -59 -61 -58 -57 0
-34 -35 -36 -37 -38 -13 -57 -58 -59 -60 -17 -61 -62 -63 -18 -64 -65 -19 -66 -20 -21 0
-34 -17 -60 -59 -58 -57 -13 -38 -37 -36 -35 -21 -20 -19 -18 -66 -65 -63 -64 -62 -61 0
-57 -58 -59 -60 -17 -34 -61 -62 -63 -18 -35 -64 -65 -19 -36 -66 -20 -37 -21 -38 -13 0
-57 -35 -18 -63 -62 -61 -34 -17 -60 -59 -58 -13 -38 -37 -36 -21 -20 -19 -66 -65 -64 0
-61 -62 -63 -18 -35 -57 -64 -65 -19 -36 -58 -66 -20 -37 -59 -21 -38 -60 -13 -17 -34 0
-61 -58 -36 -19 -65 -64 -57 -35 -18 -63 -62 -34 -17 -60 -59 -13 -38 -37 -21 -20 -66 0
-64 -65 -19 -36 -58 -61 -66 -20 -37 -59 -62 -21 -38 -60 -63 -13 -17 -18 -34 -35 -57 0
-64 -62 -59 -37 -20 -66 -61 -58 -36 -19 -65 -57 -35 -18 -63 -34 -17 -60 -13 -38 -21 0
-66 -20 -37 -59 -62 -64 -21 -38 -60 -63 -65 -13 -17 -18 -19 -34 -35 -36 -57 -58 -61 0
-21 -38 -60 -63 -65 -66 -13 -17 -18 -19 -20 -34 -35 -36 -37 -57 -58 -59 -61 -62 -64 0
-66 -65 -63 -60 -38 -21 -64 -62 -59 -37 -20 -61 -58 -36 -19 -57 -35 -18 -34 -17 -13 0
-14 -15 -16 -17 -18 -19 -39 -40 -41 -42 -43 -46 -47 -48 -49 -52 -53 -54 -57 -58 -61 0
-19 -18 -17 -16 -15 -14 -61 -58 -54 -49 -43 -57 -53 -48 -42 -52 -47 -41 -46 -40 -39 0
-14 -43 -42 -41 -40 -39 -19 -18 -17 -16 -15 -61 -58 -54 -49 -57 -53 -48 -52 -47 -46 0
-39 -40 -41 -42 -43 -14 -46 -47 -48 -49 -15 -52 -53 -54 -16 -57 -58 -17 -61 -18 -19 0
-39 -15 -49 -48 -47 -46 -14 -43 -42 -41 -40 -19 -18 -17 -16 -61 -58 -54 -57 -53 -52 0
-46 -47 -48 -49 -15 -39 -52 -53 -54 -16 -40 -57 -58 -17 -41 -61 -18 -42 -19 -43 -14 0
-46 -40 -16 -54 -53 -52 -39 -15 -49 -48 -47 -14 -43 -42 -41 -19 -18 -17 -61 -58 -57 0
-52 -53 -54 -16 -40 -46 -57 -58 -17 -41 -47 -61 -18 -42 -48 -19 -43 -49 -14 -15 -39 0
-52 -47 -41 -17 -58 -57 -46 -40 -16 -54 -53 -39 -15 -49 -48 -14 -43 -42 -19 -18 -61 0
-57 -58 -17 -41 -47 -52 -61 -18 -42 -48 -53 -19 -43 -49 -54 -14 -15 -16 -39 -40 -46 0
-57 -53 -48 -42 -18 -61 -52 -47 -41 -17 -58 -46 -40 -16 -54 -39 -15 -49 -14 -43 -19 0
-61 -18 -42 -48 -53 -57 -19 -43 -49 -54 -58 -14 -15 -16 -17 -39 -40 -41 -46 -47 -52 0
-19 -43 -49 -54 -58 -61 -14 -15 -16 -17 -18 -39 -40 -41 -42 -46 -47 -48 -52 -53 -57 0
-61 -58 -54 -49 -43 -19 -57 -53 -48 -42 -18 -52 -47 -41 -17 -46 -40 -16 -39 -15 -14 0
-14 -15 -16 -17 -18 -20 -39 -40 -41 -42 -44 -46 -47 -48 -50 -52 -53 -55 -57 -59 -62 0
-20 -18 -17 -16 -15 -14 -62 -59 -55 -50 -44 -57 -53 -48 -42 -52 -47 -41 -46 -40 -39 0
-14 -44 -42 -41 -40 -39 -20 -18 -17 -16 -15 -62 -59 -55 -50 -57 -53 -48 -52 -47 -46 0
-39 -40 -41 -42 -44 -14 -46 -47 -48 -50 -15 -52 -53 -55 -16 -57 -59 -17 -62 -18 -20 0
-39 -15 -50 -48 -47 -46 -14 -44 -42 -41 -40 -20 -18 -17 -16 -62 -59 -55 -57 -53 -52 0
-46 -47 -48 -50 -15 -39 -52 -53 -55 -16 -40 -57 -59 -17 -41 -62 -18 -42 -20 -44 -14 0
-46 -40 -16 -55 -53 -52 -39 -15 -50 -48 -47 -14 -44 -42 -41 -20 -18 -17 -62 -59 -57 0
-52 -53 -55 -16 -40 -46 -57 -59 -17 -41 -47 -62 -18 -42 -48 -20 -44 -50 -14 -15 -39 0
-52 -47 -41 -17 -59 -57 -46 -40 -16 -55 -53 -39 -15 -50 -48 -14 -44 -42 -20 -18 -62 0
-57 -59 -17 -41 -47 -52 -62 -18 -42 -48 -53 -20 -44 -50 -55 -14 -15 -16 -39 -40 -46 0
-57 -53 -48 -42 -18 -62 -52 -47 -41 -17 -59 -46 -40 -16 -55 -39 -15 -50 -14 -44 -20 0
-62 -18 -42 -48 -53 -57 -20 -44 -50 -55 -59 -14 -15 -16 -17 -39 -40 -41 -46 -47 -52 0
-20 -44 -50 -55 -59 -62 -14 -15 -16 -17 -18 -39 -40 -41 -42 -46 -47 -48 -52 -53 -57 0
-62 -59 -55 -50 -44 -20 -57 -53 -48 -42 -18 -52 -47 -41 -17 -46 -40 -16 -39 -15 -14 0
-14 -15 -16 -17 -18 -21 -39 -40 -41 -42 -45 -46 -47 -48 -51 -52 -53 -56 -57 -60 -63 0
-21 -18 -17 -16 -15 -14 -63 -60 -56 -51 -45 -57 -53 -48 -42 -52 -47 -41 -46 -40 -39 0
-14 -45 -42 -41 -40 -39 -21 -18 -17 -16 -15 -63 -60 -56 -51 -57 -53 -48 -52 -47 -46 0
-39 -40 -41 -42 -45 -14 -46 -47 -48 -51 -15 -52 -53 -56 -16 -57 -60 -17 -63 -18 -21 0
-39 -15 -51 -48 -47 -46 -14 -45 -42 -41 -40 -21 -18 -17 -16 -63 -60 -56 -57 -53 -52 0
-46 -47 -48 -51 -15 -39 -52 -53 -56 -16 -40 -57 -60 -17 -41 -63 -18 -42 -21 -45 -14 0
-46 -40 -16 -56 -53 -52 -39 -15 -51 -48 -47 -14 -45 -42 -41 -21 -18 -17 -63 -60 -57 0
-52 -53 -56 -16 -40 -46 -57 -60 -17 -41 -47 -63 -18 -42 -48 -21 -45 -51 -14 -15 -39 0
-52 -47 -41 -17 -60 -57 -46 -40 -16 -56 -53 -39 -15 -51 -48 -14 -45 -42 -21 -18 -63 0
-57 -60 -17 -41 -47 -52 -63 -18 -42 -48 -53 -21 -45 -51 -56 -14 -15 -16 -39 -40 -46 0
-57 -53 -48 -42 -18 -63 -52 -47 -41 -17 -60 -46 -40 -16 -56 -39 -15 -51 -14 -45 -21 0
-63 -18 -42 -48 -53 -57 -21 -45 -51 -56 -60 -14 -15 -16 -17 -39 -40 -41 -46 -47 -52 0
-21 -45 -51 -56 -60 -63 -14 -15 -16 -17 -18 -39 -40 -41 -42 -46 -47 -48 -52 -53 -57 0
-63 -60 -56 -51 -45 -21 -57 -53 -48 -42 -18 -52 -47 -41 -17 -46 -40 -16 -39 -15 -14 0
-14 -15 -16 -17 -19 -20 -39 -40 -41 -43 -44 -46 -47 -49 -50 -52 -54 -55 -58 -59 -64 0
-20 -19 -17 -16 -15 -14 -64 -59 -55 -50 -44 -58 -54 -49 -43 -52 -47 -41 -46 -40 -39 0
-14 -44 -43 -41 -40 -39 -20 -19 -17 -16 -15 -64 -59 -55 -50 -58 -54 -49 -52 -47 -46 0
-39 -40 -41 -43 -44 -14 -46 -47 -49 -50 -15 -52 -54 -55 -16 -58 -59 -17 -64 -19 -20 0
-39 -15 -50 -49 -47 -46 -14 -44 -43 -41 -40 -20 -19 -17 -16 -64 -59 -55 -58 -54 -52 0
-46 -47 -49 -50 -15 -39 -52 -54 -55 -16 -40 -58 -59 -17 -41 -64 -19 -43 -20 -44 -14 0
-46 -40 -16 -55 -54 -52 -39 -15 -50 -49 -47 -14 -44 -43 -41 -20 -19 -17 -64 -59 -58 0
-52 -54 -55 -16 -40 -46 -58 -59 -17 -41 -47 -64 -19 -43 -49 -20 -44 -50 -14 -15 -39 0
-52 -47 -41 -17 -59 -58 -46 -40 -16 -55 -54 -39 -15 -50 -49 -14 -44 -43 -20 -19 -64 0
-58 -59 -17 -41 -47 -52 -64 -19 -43 -49 -54 -20 -44 -50 -55 -14 -15 -16 -39 -40 -46 0
-58 -54 -49 -43 -19 -64 -52 -47 -41 -17 -59 -46 -40 -16 -55 -39 -15 -50 -14 -44 -20 0
-64 -19 -43 -49 -54 -58 -20 -44 -50 -55 -59 -14 -15 -16 -17 -39 -40 -41 -46 -47 -52 0
-20 -44 -50 -55 -59 -64 -14 -15 -16 -17 -19 -39 -40 -41 -43 -46 -47 -49 -52 -54 -58 0
-64 -59 -55 -50 -44 -20 -58 -54 -49 -43 -19 -52 -47 -41 -17 -46 -40 -16 -39 -15 -14 0
-14 -15 -16 -17 -19 -21 -39 -40 -41 -43 -45 -46 -47 -49 -51 -52 -54 -56 -58 -60 -65 0
-21 -19 -17 -16 -15 -14 -65 -60 -56 -51 -45 -58 -54 -49 -43 -52 -47 -41 -46 -40 -39 0
-14 -45 -43 -41 -40 -39 -21 -19 -17 -16 -15 -65 -60 -56 -51 -58 -54 -49 -52 -47 -46 0
-39 -40 -41 -43 -45 -14 -46 -47 -49 -51 -15 -52 -54 -56 -16 -58 -60 -17 -65 -19 -21 0
-39 -15 -51 -49 -47 -46 -14 -45 -43 -41 -40 -21 -19 -17 -16 -65 -60 -56 -58 -54 -52 0
-46 -47 -49 -51 -15 -39 -52 -54 -56 -16 -40 -58 -60 -17 -41 -65 -19 -43 -21 -45 -14 0
-46 -40 -16 -56 -54 -52 -39 -15 -51 -49 -47 -14 -45 -43 -41 -21 -19 -17 -65 -60 -58 0
-52 -54 -56 -16 -40 -46 -58 -60 -17 -41 -47 -65 -19 -43 -49 -21 -45 -51 -14 -15 -39 0
-52 -47 -41 -17 -60 -58 -46 -40 -16 -56 -54 -39 -15 -51 -49 -14 -45 -43 -21 -19 -65 0
-58 -60 -17 -41 -47 -52 -65 -19 -43 -49 -54 -21 -45 -51 -56 -14 -15 -16 -39 -40 -46 0
-58 -54 -49 -43 -19 -65 -52 -47 -41 -17 -60 -46 -40 -16 -56 -39 -15 -51 -14 -45 -21 0
-65 -19 -43 -49 -54 -58 -21 -45 -51 -56 -60 -14 -15 -16 -17 -39 -40 -41 -46 -47 -52 0
-21 -45 -51 -56 -60 -65 -14 -15 -16 -17 -19 -39 -40 -41 -43 -46 -47 -49 -52 -54 -58 0
-65 -60 -56 -51 -45 -21 -58 -54 -49 -43 -19 -52 -47 -41 -17 -46 -40 -16 -39 -15 -14 0
-14 -15 -16 -17 -20 -21 -39 -40 -41 -44 -45 -46 -47 -50 -51 -52 -55 -56 -59 -60 -66 0
-21 -20 -17 -16 -15 -14 -66 -60 -56 -51 -45 -59 -55 -50 -44 -52 -47 -41 -46 -40 -39 0
-14 -45 -44 -41 -40 -39 -21 -20 -17 -16 -15 -66 -60 -56 -51 -59 -55 -50 -52 -47 -46 0
-39 -40 -41 -44 -45 -14 -46 -47 -50 -51 -15 -52 -55 -56 -16 -59 -60 -17 -66 -20 -21 0
-39 -15 -51 -50 -47 -46 -14 -45 -44 -41 -40 -21 -20 -17 -16 -66 -60 -56 -59 -55 -52 0
-46 -47 -50 -51 -15 -39 -52 -55 -56 -16 -40 -59 -60 -17 -41 -66 -20 -44 -21 -45 -14 0
-46 -40 -16 -56 -55 -52 -39 -15 -51 -50 -47 -14 -45 -44 -41 -21 -20 -17 -66 -60 -59 0
-52 -55 -56 -16 -40 -46 -59 -60 -17 -41 -47 -66 -20 -44 -50 -21 -45 -51 -14 -15 -39 0
-52 -47 -41 -17 -60 -59 -46 -40 -16 -56 -55 -39 -15 -51 -50 -14 -45 -44 -21 -20 -66 0
-59 -60 -17 -41 -47 -52 -66 -20 -44 -50 -55 -21 -45 -51 -56 -14 -15 -16 -39 -40 -46 0
-59 -55 -50 -44 -20 -66 -52 -47 -41 -17 -60 -46 -40 -16 -56 -39 -15 -51 -14 -45 -21 0
-66 -20 -44 -50 -55 -59 -21 -45 -51 -56 -60 -14 -15 -16 -17 -39 -40 -41 -46 -47 -52 0
-21 -45 -51 -56 -60 -66 -14 -15 -16 -17 -20 -39 -40 -41 -44 -46 -47 -50 -52 -55 -59 0
-66 -60 -56 -51 -45 -21 -59 -55 -50 -44 -20 -52 -47 -41 -17 -46 -40 -16 -39 -15 -14 0
-14 -15 -16 -18 -19 -20 -39 -40 -42 -43 -44 -46 -48 -49 -50 -53 -54 -55 -61 -62 -64 0
-20 -19 -18 -16 -15 -14 -64 -62 -55 -50 -44 -61 -54 -49 -43 -53 -48 -42 -46 -40 -39 0
-14 -44 -43 -42 -40 -39 -20 -19 -18 -16 -15 -64 -62 -55 -50 -61 -54 -49 -53 -48 -46 0
-39 -40 -42 -43 -44 -14 -46 -48 -49 -50 -15 -53 -54 -55 -16 -61 -62 -18 -64 -19 -20 0
-39 -15 -50 -49 -48 -46 -14 -44 -43 -42 -40 -20 -19 -18 -16 -64 -62 -55 -61 -54 -53 0
-46 -48 -49 -50 -15 -39 -53 -54 -55 -16 -40 -61 -62 -18 -42 -64 -19 -43 -20 -44 -14 0
-46 -40 -16 -55 -54 -53 -39 -15 -50 -49 -48 -14 -44 -43 -42 -20 -19 -18 -64 -62 -61 0
-53 -54 -55 -16 -40 -46 -61 -62 -18 -42 -48 -64 -19 -43 -49 -20 -44 -50 -14 -15 -39 0
-53 -48 -42 -18 -62 -61 -46 -40 -16 -55 -54 -39 -15 -50 -49 -14 -44 -43 -20 -19 -64 0
-61 -62 -18 -42 -48 -53 -64 -19 -43 -49 -54 -20 -44 -50 -55 -14 -15 -16 -39 -40 -46 0
-61 -54 -49 -43 -19 -64 -53 -48 -42 -18 -62 -46 -40 -16 -55 -39 -15 -50 -14 -44 -20 0
-64 -19 -43 -49 -54 -61 -20 -44 -50 -55 -62 -14 -15 -16 -18 -39 -40 -42 -46 -48 -53 0
-20 -44 -50 -55 -62 -64 -14 -15 -16 -18 -19 -39 -40 -42 -43 -46 -48 -49 -53 -54 -61 0
-64 -62 -55 -50 -44 -20 -61 -54 -49 -43 -19 -53 -48 -42 -18 -46 -40 -16 -39 -15 -14 0
-14 -15 -16 -18 -19 -21 -39 -40 -42 -43 -45 -46 -48 -49 -51 -53 -54 -56 -61 -63 -65 0
-21 -19 -18 -16 -15 -14 -65 -63 -56 -51 -45 -61 -54 -49 -43 -53 -48 -42 -46 -40 -39 0
-14 -45 -43 -42 -40 -39 -21 -19 -18 -16 -15 -65 -63 -56 -51 -61 -54 -49 -53 -48 -46 0
-39 -40 -42 -43 -45 -14 -46 -48 -49 -51 -15 -53 -54 -56 -16 -61 -63 -18 -65 -19 -21 0
-39 -15 -51 -49 -48 -46 -14 -45 -43 -42 -40 -21 -19 -18 -16 -65 -63 -56 -61 -54 -53 0
-46 -48 -49 -51 -15 -39 -53 -54 -56 -16 -40 -61 -63 -18 -42 -65 -19 -43 -21 -45 -14 0
-46 -40 -16 -56 -54 -53 -39 -15 -51 -49 -48 -14 -45 -43 -42 -21 -19 -18 -65 -63 -61 0
-53 -54 -56 -16 -40 -46 -61 -63 -18 -42 -48 -65 -19 -43 -49 -21 -45 -51 -14 -15 -39 0
-53 -48 -42 -18 -63 -61 -46 -40 -16 -56 -54 -39 -15 -51 -49 -14 -45 -43 -21 -19 -65 0
-61 -63 -18 -42 -48 -53 -65 -19 -43 -49 -54 -21 -45 -51 -56 -14 -15 -16 -39 -40 -46 0
-61 -54 -49 -43 -19 -65 -53 -48 -42 -18 -63 -46 -40 -16 -56 -39 -15 -51 -14 -45 -21 0
-65 -19 -43 -49 -54 -61 -21 -45 -51 -56 -63 -14 -15 -16 -18 -39 -40 -42 -46 -48 -53 0
-21 -45 -51 -56 -63 -65 -14 -15 -16 -18 -19 -39 -40 -42 -43 -46 -48 -49 -53 -54 -61 0
-65 -63 -56 -51 -45 -21 -61 -54 -49 -43 -19 -53 -48 -42 -18 -46 -40 -16 -39 -15 -14 0
-14 -15 -16 -18 -20 -21 -39 -40 -42 -44 -45 -46 -48 -50 -51 -53 -55 -56 -62 -63 -66 0
-21 -20 -18 -16 -15 -14 -66 -63 -56 -51 -45 -62 -55 -50 -44 -53 -48 -42 -46 -40 -39 0
-14 -45 -44 -42 -40 -39 -21 -20 -18 -16 -15 -66 -63 -56 -51 -62 -55 -50 -53 -48 -46 0
-39 -40 -42 -44 -45 -14 -46 -48 -50 -51 -15 -53 -55 -56 -16 -62 -63 -18 -66 -20 -21 0
-39 -15 -51 -50 -48 -46 -14 -45 -44 -42 -40 -21 -20 -18 -16 -66 -63 -56 -62 -55 -53 0
-46 -48 -50 -51 -15 -39 -53 -55 -56 -16 -40 -62 -63 -18 -42 -66 -20 -44 -21 -45 -14 0
-46 -40 -16 -56 -55 -53 -39 -15 -51 -50 -48 -14 -45 -44 -42 -21 -20 -18 -66 -63 -62 0
-53 -55 -56 -16 -40 -46 -62 -63 -18 -42 -48 -66 -20 -44 -50 -21 -45 -51 -14 -15 -39 0
-53 -48 -42 -18 -63 -62 -46 -40 -16 -56 -55 -39 -15 -51 -50 -14 -45 -44 -21 -20 -66 0
-62 -63 -18 -42 -48 -53 -66 -20 -44 -50 -55 -21 -45 -51 -56 -14 -15 -16 -39 -40 -46 0
-62 -55 -50 -44 -20 -66 -53 -48 -42 -18 -63 -46 -40 -16 -56 -39 -15 -51 -14 -45 -21 0
-66 -20 -44 -50 -55 -62 -21 -45 -51 -56 -63 -14 -15 -16 -18 -39 -40 -42 -46 -48 -53 0
-21 -45 -51 -56 -63 -66 -14 -15 -16 -18 -20 -39 -40 -42 -44 -46 -48 -50 -53 -55 -62 0
-66 -63 -56 -51 -45 -21 -62 -55 -50 -44 -20 -53 -48 -42 -18 -46 -40 -16 -39 -15 -14 0
-14 -15 -16 -19 -20 -21 -39 -40 -43 -44 -45 -46 -49 -50 -51 -54 -55 -56 -64 -65 -66 0
-21 -20 -19 -16 -15 -14 -66 -65 -56 -51 -45 -64 -55 -50 -44 -54 -49 -43 -46 -40 -39 0
-14 -45 -44 -43 -40 -39 -21 -20 -19 -16 -15 -66 -65 -56 -51 -64 -55 -50 -54 -49 -46 0
-39 -40 -43 -44 -45 -14 -46 -49 -50 -51 -15 -54 -55 -56 -16 -64 -65 -19 -66 -20 -21 0
-39 -15 -51 -50 -49 -46 -14 -45 -44 -43 -40 -21 -20 -19 -16 -66 -65 -56 -64 -55 -54 0
-46 -49 -50 -51 -15 -39 -54 -55 -56 -16 -40 -64 -65 -19 -43 -66 -20 -44 -21 -45 -14 0
-46 -40 -16 -56 -55 -54 -39 -15 -51 -50 -49 -14 -45 -44 -43 -21 -20 -19 -66 -65 -64 0
-54 -55 -56 -16 -40 -46 -64 -65 -19 -43 -49 -66 -20 -44 -50 -21 -45 -51 -14 -15 -39 0
-54 -49 -43 -19 -65 -64 -46 -40 -16 -56 -55 -39 -15 -51 -50 -14 -45 -44 -21 -20 -66 0
-64 -65 -19 -43 -49 -54 -66 -20 -44 -50 -55 -21 -45 -51 -56 -14 -15 -16 -39 -40 -46 0
-64 -55 -50 -44 -20 -66 -54 -49 -43 -19 -65 -46 -40 -16 -56 -39 -15 -51 -14 -45 -21 0
-66 -20 -44 -50 -55 -64 -21 -45 -51 -56 -65 -14 -15 -16 -19 -39 -40 -43 -46 -49 -54 0
-21 -45 -51 -56 -65 -66 -14 -15 -16 -19 -20 -39 -40 -43 -44 -46 -49 -50 -54 -55 -64 0
-66 -65 -56 -51 -45 -21 -64 -55 -50 -44 -20 -54 -49 -43 -19 -46 -40 -16 -39 -15 -14 0
-14 -15 -17 -18 -19 -20 -39 -41 -42 -43 -44 -47 -48 -49 -50 -57 -58 -59 -61 -62 -64 0
-20 -19 -18 -17 -15 -14 -64 -62 -59 -50 -44 -61 -58 -49 -43 -57 -48 -42 -47 -41 -39 0
-14 -44 -43 -42 -41 -39 -20 -19 -18 -17 -15 -64 -62 -59 -50 -61 -58 -49 -57 -48 -47 0
-39 -41 -42 -43 -44 -14 -47 -48 -49 -50 -15 -57 -58 -59 -17 -61 -62 -18 -64 -19 -20 0
-39 -15 -50 -49 -48 -47 -14 -44 -43 -42 -41 -20 -19 -18 -17 -64 -62 -59 -61 -58 -57 0
-47 -48 -49 -50 -15 -39 -57 -58 -59 -17 -41 -61 -62 -18 -42 -64 -19 -43 -20 -44 -14 0
-47 -41 -17 -59 -58 -57 -39 -15 -50 -49 -48 -14 -44 -43 -42 -20 -19 -18 -64 -62 -61 0
-57 -58 -59 -17 -41 -47 -61 -62 -18 -42 -48 -64 -19 -43 -49 -20 -44 -50 -14 -15 -39 0
-57 -48 -42 -18 -62 -61 -47 -41 -17 -59 -58 -39 -15 -50 -49 -14 -44 -43 -20 -19 -64 0
-61 -62 -18 -42 -48 -57 -64 -19 -43 -49 -58 -20 -44 -50 -59 -14 -15 -17 -39 -41 -47 0
-61 -58 -49 -43 -19 -64 -57 -48 -42 -18 -62 -47 -41 -17 -59 -39 -15 -50 -14 -44 -20 0
-64 -19 -43 -49 -58 -61 -20 -44 -50 -59 -62 -14 -15 -17 -18 -39 -41 -42 -47 -48 -57 0
-20 -44 -50 -59 -62 -64 -14 -15 -17 -18 -19 -39 -41 -42 -43 -47 -48 -49 -57 -58 -61 0
-64 -62 -59 -50 -44 -20 -61 -58 -49 -43 -19 -57 -48 -42 -18 -47 -41 -17 -39 -15 -14 0
-14 -15 -17 -18 -19 -21 -39 -41 -42 -43 -45 -47 -48 -49 -51 -57 -58 -60 -61 -63 -65 0
-21 -19 -18 -17 -15 -14 -65 -63 -60 -51 -45 -61 -58 -49 -43 -57 -48 -42 -47 -41 -39 0
-14 -45 -43 -42 -41 -39 -21 -19 -18 -17 -15 -65 -63 -60 -51 -61 -58 -49 -57 -48 -47 0
-39 -41 -42 -43 -45 -14 -47 -48 -49 -51 -15 -57 -58 -60 -17 -61 -63 -18 -65 -19 -21 0
-39 -15 -51 -49 -48 -47 -14 -45 -43 -42 -41 -21 -19 -18 -17 -65 -63 -60 -61 -58 -57 0
-47 -48 -49 -51 -15 -39 -57 -58 -60 -17 -41 -61 -63 -18 -42 -65 -19 -43 -21 -45 -14 0
-47 -41 -17 -60 -58 -57 -39 -15 -51 -49 -48 -14 -45 -43 -42 -21 -19 -18 -65 -63 -61 0
-57 -58 -60 -17 -41 -47 -61 -63 -18 -42 -48 -65 -19 -43 -49 -21 -45 -51 -14 -15 -39 0
-57 -48 -42 -18 -63 -61 -47 -41 -17 -60 -58 -39 -15 -51 -49 -14 -45 -43 -21 -19 -65 0
-61 -63 -18 -42 -48 -57 -65 -19 -43 -49 -58 -21 -45 -51 -60 -14 -15 -17 -39 -41 -47 0
-61 -58 -49 -43 -19 -65 -57 -48 -42 -18 -63 -47 -41 -17 -60 -39 -15 -51 -14 -45 -21 0
-65 -19 -43 -49 -58 -61 -21 -45 -51 -60 -63 -14 -15 -17 -18 -39 -41 -42 -47 -48 -57 0
-21 -45 -51 -60 -63 -65 -14 -15 -17 -18 -19 -39 -41 -42 -43 -47 -48 -49 -57 -58 -61 0
-65 -63 -60 -51 -45 -21 -61 -58 -49 -43 -19 -57 -48 -42 -18 -47 -41 -17 -39 -15 -14 0
-14 -15 -17 -18 -20 -21 -39 -41 -42 -44 -45 -47 -48 -50 -51 -57 -59 -60 -62 -63 -66 0
-21 -20 -18 -17 -15 -14 -66 -63 -60 -51 -45 -62 -59 -50 -44 -57 -48 -42 -47 -41 -39 0
-14 -45 -44 -42 -41 -39 -21 -20 -18 -17 -15 -66 -63 -60 -51 -62 -59 -50 -57 -48 -47 0
-39 -41 -42 -44 -45 -14 -47 -48 -50 -51 -15 -57 -59 -60 -17 -62 -63 -18 -66 -20 -21 0
-39 -15 -51 -50 -48 -47 -14 -45 -44 -42 -41 -21 -20 -18 -17 -66 -63 -60 -62 -59 -57 0
-47 -48 -50 -51 -15 -39 -57 -59 -60 -17 -41 -62 -63 -18 -42 -66 -20 -44 -21 -45 -14 0
-47 -41 -17 -60 -59 -57 -39 -15 -51 -50 -48 -14 -45 -44 -42 -21 -20 -18 -66 -63 -62 0
-57 -59 -60 -17 -41 -47 -62 -63 -18 -42 -48 -66 -20 -44 -50 -21 -45 -51 -14 -15 -39 0
-57 -48 -42 -18 -63 -62 -47 -41 -17 -60 -59 -39 -15 -51 -50 -14 -45 -44 -21 -20 -66 0
-62 -63 -18 -42 -48 -57 -66 -20 -44 -50 -59 -21 -45 -51 -60 -14 -15 -17 -39 -41 -47 0
-62 -59 -50 -44 -20 -66 -57 -48 -42 -18 -63 -47 -41 -17 -60 -39 -15 -51 -14 -45 -21 0
-66 -20 -44 -50 -59 -62 -21 -45 -51 -60 -63 -14 -15 -17 -18 -39 -41 -42 -47 -48 -57 0
-21 -45 -51 -60 -63 -66 -14 -15 -17 -18 -20 -39 -41 -42 -44 -47 -48 -50 -57 -59 -62 0
-66 -63 -60 -51 -45 -21 -62 -59 -50 -44 -20 -57 -48 -42 -18 -47 -41 -17 -39 -15 -14 0
-14 -15 -17 -19 -20 -21 -39 -41 -43 -44 -45 -47 -49 -50 -51 -58 -59 -60 -64 -65 -66 0
-21 -20 -19 -17 -15 -14 -66 -65 -60 -51 -45 -64 -59 -50 -44 -58 -49 -43 -47 -41 -39 0
-14 -45 -44 -43 -41 -39 -21 -20 -19 -17 -15 -66 -65 -60 -51 -64 -59 -50 -58 -49 -47 0
-39 -41 -43 -44 -45 -14 -47 -49 -50 -51 -15 -58 -59 -60 -17 -64 -65 -19 -66 -20 -21 0
-39 -15 -51 -50 -49 -47 -14 -45 -44 -43 -41 -21 -20 -19 -17 -66 -65 -60 -64 -59 -58 0
-47 -49 -50 -51 -15 -39 -58 -59 -60 -17 -41 -64 -65 -19 -43 -66 -20 -44 -21 -45 -14 0
-47 -41 -17 -60 -59 -58 -39 -15 -51 -50 -49 -14 -45 -44 -43 -21 -20 -19 -66 -65 -64 0
-58 -59 -60 -17 -41 -47 -64 -65 -19 -43 -49 -66 -20 -44 -50 -21 -45 -51 -14 -15 -39 0
-58 -49 -43 -19 -65 -64 -47 -41 -17 -60 -59 -39 -15 -51 -50 -14 -45 -44 -21 -20 -66 0
-64 -65 -19 -43 -49 -58 -66 -20 -44 -50 -59 -21 -45 -51 -60 -14 -15 -17 -39 -41 -47 0
-64 -59 -50 -44 -20 -66 -58 -49 -43 -19 -65 -47 -41 -17 -60 -39 -15 -51 -14 -45 -21 0
-66 -20 -44 -50 -59 -64 -21 -45 -51 -60 -65 -14 -15 -17 -19 -39 -41 -43 -47 -49 -58 0
-21 -45 -51 -60 -65 -66 -14 -15 -17 -19 -20 -39 -41 -43 -44 -47 -49 -50 -58 -59 -64 0
-66 -65 -60 -51 -45 -21 -64 -59 -50 -44 -20 -58 -49 -43 -19 -47 -41 -17 -39 -15 -14 0
-14 -15 -18 -19 -20 -21 -39 -42 -43 -44 -45 -48 -49 -50 -51 -61 -62 -63 -64 -65 -66 0
-21 -20 -19 -18 -15 -14 -66 -65 -63 -51 -45 -64 -62 -50 -44 -61 -49 -43 -48 -42 -39 0
-14 -45 -44 -43 -42 -39 -21 -20 -19 -18 -15 -66 -65 -63 -51 -64 -62 -50 -61 -49 -48 0
-39 -42 -43 -44 -45 -14 -48 -49 -50 -51 -15 -61 -62 -63 -18 -64 -65 -19 -66 -20 -21 0
-39 -15 -51 -50 -49 -48 -14 -45 -44 -43 -42 -21 -20 -19 -18 -66 -65 -63 -64 -62 -61 0
-48 -49 -50 -51 -15 -39 -61 -62 -63 -18 -42 -64 -65 -19 -43 -66 -20 -44 -21 -45 -14 0
-48 -42 -18 -63 -62 -61 -39 -15 -51 -50 -49 -14 -45 -44 -43 -21 -20 -19 -66 -65 -64 0
-61 -62 -63 -18 -42 -48 -64 -65 -19 -43 -49 -66 -20 -44 -50 -21 -45 -51 -14 -15 -39 0
-61 -49 -43 -19 -65 -64 -48 -42 -18 -63 -62 -39 -15 -51 -50 -14 -45 -44 -21 -20 -66 0
-64 -65 -19 -43 -49 -61 -66 -20 -44 -50 -62 -21 -45 -51 -63 -14 -15 -18 -39 -42 -48 0
-64 -62 -50 -44 -20 -66 -61 -49 -43 -19 -65 -48 -42 -18 -63 -39 -15 -51 -14 -45 -21 0
-66 -20 -44 -50 -62 -64 -21 -45 -51 -63 -65 -14 -15 -18 -19 -39 -42 -43 -48 -49 -61 0
-21 -45 -51 -63 -65 -66 -14 -15 -18 -19 -20 -39 -42 -43 -44 -48 -49 -50 -61 -62 -64 0
-66 -65 -63 -51 -45 -21 -64 -62 -50 -44 -20 -61 -49 -43 -19 -48 -42 -18 -39 -15 -14 0
-14 -16 -17 -18 -19 -20 -40 -41 -42 -43 -44 -52 -53 -54 -55 -57 -58 -59 -61 -62 -64 0
-20 -19 -18 -17 -16 -14 -64 -62 -59 -55 -44 -61 -58 -54 -43 -57 -53 -42 -52 -41 -40 0
-14 -44 -43 -42 -41 -40 -20 -19 -18 -17 -16 -64 -62 -59 -55 -61 -58 -54 -57 -53 -52 0
-40 -41 -42 -43 -44 -14 -52 -53 -54 -55 -16 -57 -58 -59 -17 -61 -62 -18 -64 -19 -20 0
-40 -16 -55 -54 -53 -52 -14 -44 -43 -42 -41 -20 -19 -18 -17 -64 -62 -59 -61 -58 -57 0
-52 -53 -54 -55 -16 -40 -57 -58 -59 -17 -41 -61 -62 -18 -42 -64 -19 -43 -20 -44 -14 0
-52 -41 -17 -59 -58 -57 -40 -16 -55 -54 -53 -14 -44 -43 -42 -20 -19 -18 -64 -62 -61 0
-57 -58 -59 -17 -41 -52 -61 -62 -18 -42 -53 -64 -19 -43 -54 -20 -44 -55 -14 -16 -40 0
-57 -53 -42 -18 -62 -61 -52 -41 -17 -59 -58 -40 -16 -55 -54 -14 -44 -43 -20 -19 -64 0
-61 -62 -18 -42 -53 -57 -64 -19 -43 -54 -58 -20 -44 -55 -59 -14 -16 -17 -40 -41 -52 0
-61 -58 -54 -43 -19 -64 -57 -53 -42 -18 -62 -52 -41 -17 -59 -40 -16 -55 -14 -44 -20 0
-64 -19 -43 -54 -58 -61 -20 -44 -55 -59 -62 -14 -16 -17 -18 -40 -41 -42 -52 -53 -57 0
-20 -44 -55 -59 -62 -64 -14 -16 -17 -18 -19 -40 -41 -42 -43 -52 -53 -54 -57 -58 -61 0
-64 -62 -59 -55 -44 -20 -61 -58 -54 -43 -19 -57 -53 -42 -18 -52 -41 -17 -40 -16 -14 0
-14 -16 -17 -18 -19 -21 -40 -41 -42 -43 -45 -52 -53 -54 -56 -57 -58 -60 -61 -63 -65 0
-21 -19 -18 -17 -16 -14 -65 -63 -60 -56 -45 -61 -58 -54 -43 -57 -53 -42 -52 -41 -40 0
-14 -45 -43 -42 -41 -40 -21 -19 -18 -17 -16 -65 -63 -60 -56 -61 -58 -54 -57 -53 -52 0
-40 -41 -42 -43 -45 -14 -52 -53 -54 -56 -16 -57 -58 -60 -17 -61 -63 -18 -65 -19 -21 0
-40 -16 -56 -54 -53 -52 -14 -45 -43 -42 -41 -21 -19 -18 -17 -65 -63 -60 -61 -58 -57 0
-52 -53 -54 -56 -16 -40 -57 -58 -60 -17 -41 -61 -63 -18 -42 -65 -19 -43 -21 -45 -14 0
-52 -41 -17 -60 -58 -57 -40 -16 -56 -54 -53 -14 -45 -43 -42 -21 -19 -18 -65 -63 -61 0
-57 -58 -60 -17 -41 -52 -61 -63 -18 -42 -53 -65 -19 -43 -54 -21 -45 -56 -14 -16 -40 0
-57 -53 -42 -18 -63 -61 -52 -41 -17 -60 -58 -40 -16 -56 -54 -14 -45 -43 -21 -19 -65 0
-61 -63 -18 -42 -53 -57 -65 -19 -43 -54 -58 -21 -45 -56 -60 -14 -16 -17 -40 -41 -52 0
-61 -58 -54 -43 -19 -65 -57 -53 -42 -18 -63 -52 -41 -17 -60 -40 -16 -56 -14 -45 -21 0
-65 -19 -43 -54 -58 -61 -21 -45 -56 -60 -63 -14 -16 -17 -18 -40 -41 -42 -52 -53 -57 0
-21 -45 -56 -60 -63 -65 -14 -16 -17 -18 -19 -40 -41 -42 -43 -52 -53 -54 -57 -58 -61 0
-65 -63 -60 -56 -45 -21 -61 -58 -54 -43 -19 -57 -53 -42 -18 -52 -41 -17 -40 -16 -14 0
-14 -16 -17 -18 -20 -21 -40 -41 -42 -44 -45 -52 -53 -55 -56 -57 -59 -60 -62 -63 -66 0
-21 -20 -18 -17 -16 -14 -66 -63 -60 -56 -45 -62 -59 -55 -44 -57 -53 -42 -52 -41 -40 0
-14 -45 -44 -42 -41 -40 -21 -20 -18 -17 -16 -66 -63 -60 -56 -62 -59 -55 -57 -53 -52 0
-40 -41 -42 -44 -45 -14 -52 -53 -55 -56 -16 -57 -59 -60 -17 -62 -63 -18 -66 -20 -21 0
-40 -16 -56 -55 -53 -52 -14 -45 -44 -42 -41 -21 -20 -18 -17 -66 -63 -60 -62 -59 -57 0
-52 -53 -55 -56 -16 -40 -57 -59 -60 -17 -41 -62 -63 -18 -42 -66 -20 -44 -21 -45 -14 0
-52 -41 -17 -60 -59 -57 -40 -16 -56 -55 -53 -14 -45 -44 -42 -21 -20 -18 -66 -63 -62 0
-57 -59 -60 -17 -41 -52 -62 -63 -18 -42 -53 -66 -20 -44 -55 -21 -45 -56 -14 -16 -40 0
-57 -53 -42 -18 -63 -62 -52 -41 -17 -60 -59 -40 -16 -56 -55 -14 -45 -44 -21 -20 -66 0
-62 -63 -18 -42 -53 -57 -66 -20 -44 -55 -59 -21 -45 -56 -60 -14 -16 -17 -40 -41 -52 0
-62 -59 -55 -44 -20 -66 -57 -53 -42 -18 -63 -52 -41 -17 -60 -40 -16 -56 -14 -45 -21 0
-66 -20 -44 -55 -59 -62 -21 -45 -56 -60 -63 -14 -16 -17 -18 -40 -41 -42 -52 -53 -57 0
-21 -45 -56 -60 -63 -66 -14 -16 -17 -18 -20 -40 -41 -42 -44 -52 -53 -55 -57 -59 -62 0
-66 -63 -60 -56 -45 -21 -62 -59 -55 -44 -20 -57 -53 -42 -18 -52 -41 -17 -40 -16 -14 0
-14 -16 -17 -19 -20 -21 -40 -41 -43 -44 -45 -52 -54 -55 -56 -58 -59 -60 -64 -65 -66 0
-21 -20 -19 -17 -16 -14 -66 -65 -60 -56 -45 -64 -59 -55 -44 -58 -54 -43 -52 -41 -40 0
-14 -45 -44 -43 -41 -40 -21 -20 -19 -17 -16 -66 -65 -60 -56 -64 -59 -55 -58 -54 -52 0
-40 -41 -43 -44 -45 -14 -52 -54 -55 -56 -16 -58 -59 -60 -17 -64 -65 -19 -66 -20 -21 0
-40 -16 -56 -55 -54 -52 -14 -45 -44 -43 -41 -21 -20 -19 -17 -66 -65 -60 -64 -59 -58 0
-52 -54 -55 -56 -16 -40 -58 -59 -60 -17 -41 -64 -65 -19 -43 -66 -20 -44 -21 -45 -14 0
-52 -41 -17 -60 -59 -58 -40 -16 -56 -55 -54 -14 -45 -44 -43 -21 -20 -19 -66 -65 -64 0
-58 -59 -60 -17 -41 -52 -64 -65 -19 -43 -54 -66 -20 -44 -55 -21 -45 -56 -14 -16 -40 0
-58 -54 -43 -19 -65 -64 -52 -41 -17 -60 -59 -40 -16 -56 -55 -14 -45 -44 -21 -20 -66 0
-64 -65 -19 -43 -54 -58 -66 -20 -44 -55 -59 -21 -45 -56 -60 -14 -16 -17 -40 -41 -52 0
-64 -59 -55 -44 -20 -66 -58 -54 -43 -19 -65 -52 -41 -17 -60 -40 -16 -56 -14 -45 -21 0
-66 -20 -44 -55 -59 -64 -21 -45 -56 -60 -65 -14 -16 -17 -19 -40 -41 -43 -52 -54 -58 0
-21 -45 -56 -60 -65 -66 -14 -16 -17 -19 -20 -40 -41 -43 -44 -52 -54 -55 -58 -59 -64 0
-66 -65 -60 -56 -45 -21 -64 -59 -55 -44 -20 -58 -54 -43 -19 -52 -41 -17 -40 -16 -14 0
-14 -16 -18 -19 -20 -21 -40 -42 -43 -44 -45 -53 -54 -55 -56 -61 -62 -63 -64 -65 -66 0
-21 -20 -19 -18 -16 -14 -66 -65 -63 -56 -45 -64 -62 -55 -44 -61 -54 -43 -53 -42 -40 0
-14 -45 -44 -43 -42 -40 -21 -20 -19 -18 -16 -66 -65 -63 -56 -64 -62 -55 -61 -54 -53 0
-40 -42 -43 -44 -45 -14 -53 -54 -55 -56 -16 -61 -62 -63 -18 -64 -65 -19 -66 -20 -21 0
-40 -16 -56 -55 -54 -53 -14 -45 -44 -43 -42 -21 -20 -19 -18 -66 -65 -63 -64 -62 -61 0
-53 -54 -55 -56 -16 -40 -61 -62 -63 -18 -42 -64 -65 -19 -43 -66 -20 -44 -21 -45 -14 0
-53 -42 -18 -63 -62 -61 -40 -16 -56 -55 -54 -14 -45 -44 -43 -21 -20 -19 -66 -65 -64 0
-61 -62 -63 -18 -42 -53 -64 -65 -19 -43 -54 -66 -20 -44 -55 -21 -45 -56 -14 -16 -40 0
-61 -54 -43 -19 -65 -64 -53 -42 -18 -63 -62 -40 -16 -56 -55 -14 -45 -44 -21 -20 -66 0
-64 -65 -19 -43 -54 -61 -66 -20 -44 -55 -62 -21 -45 -56 -63 -14 -16 -18 -40 -42 -53 0
-64 -62 -55 -44 -20 -66 -61 -54 -43 -19 -65 -53 -42 -18 -63 -40 -16 -56 -14 -45 -21 0
-66 -20 -44 -55 -62 -64 -21 -45 -56 -63 -65 -14 -16 -18 -19 -40 -42 -43 -53 -54 -61 0
-21 -45 -56 -63 -65 -66 -14 -16 -18 -19 -20 -40 -42 -43 -44 -53 -54 -55 -61 -62 -64 0
-66 -65 -63 -56 -45 -21 -64 -62 -55 -44 -20 -61 -54 -43 -19 -53 -42 -18 -40 -16 -14 0
-14 -17 -18 -19 -20 -21 -41 -42 -43 -44 -45 -57 -58 -59 -60 -61 -62 -63 -64 -65 -66 0
-21 -20 -19 -18 -17 -14 -66 -65 -63 -60 -45 -64 -62 -59 -44 -61 -58 -43 -57 -42 -41 0
-14 -45 -44 -43 -42 -41 -21 -20 -19 -18 -17 -66 -65 -63 -60 -64 -62 -59 -61 -58 -57 0
-41 -42 -43 -44 -45 -14 -57 -58 -59 -60 -17 -61 -62 -63 -18 -64 -65 -19 -66 -20 -21 0
-41 -17 -60 -59 -58 -57 -14 -45 -44 -43 -42 -21 -20 -19 -18 -66 -65 -63 -64 -62 -61 0
-57 -58 -59 -60 -17 -41 -61 -62 -63 -18 -42 -64 -65 -19 -43 -66 -20 -44 -21 -45 -14 0
-57 -42 -18 -63 -62 -61 -41 -17 -60 -59 -58 -14 -45 -44 -43 -21 -20 -19 -66 -65 -64 0
-61 -62 -63 -18 -42 -57 -64 -65 -19 -43 -58 -66 -20 -44 -59 -21 -45 -60 -14 -17 -41 0
-61 -58 -43 -19 -65 -64 -57 -42 -18 -63 -62 -41 -17 -60 -59 -14 -45 -44 -21 -20 -66 0
-64 -65 -19 -43 -58 -61 -66 -20 -44 -59 -62 -21 -45 -60 -63 -14 -17 -18 -41 -42 -57 0
-64 -62 -59 -44 -20 -66 -61 -58 -43 -19 -65 -57 -42 -18 -63 -41 -17 -60 -14 -45 -21 0
-66 -20 -44 -59 -62 -64 -21 -45 -60 -63 -65 -14 -17 -18 -19 -41 -42 -43 -57 -58 -61 0
-21 -45 -60 -63 -65 -66 -14 -17 -18 -19 -20 -41 -42 -43 -44 -57 -58 -59 -61 -62 -64 0
-66 -65 -63 -60 -45 -21 -64 -62 -59 -44 -20 -61 -58 -43 -19 -57 -42 -18 -41 -17 -14 0
-15 -16 -17 -18 -19 -20 -46 -47 -48 -49 -50 -52 -53 -54 -55 -57 -58 -59 -61 -62 -64 0
-20 -19 -18 -17 -16 -15 -64 -62 -59 -55 -50 -61 -58 -54 -49 -57 -53 -48 -52 -47 -46 0
-15 -50 -49 -48 -47 -46 -20 -19 -18 -17 -16 -64 -62 -59 -55 -61 -58 -54 -57 -53 -52 0
-46 -47 -48 -49 -50 -15 -52 -53 -54 -55 -16 -57 -58 -59 -17 -61 -62 -18 -64 -19 -20 0
-46 -16 -55 -54 -53 -52 -15 -50 -49 -48 -47 -20 -19 -18 -17 -64 -62 -59 -61 -58 -57 0
-52 -53 -54 -55 -16 -46 -57 -58 -59 -17 -47 -61 -62 -18 -48 -64 -19 -49 -20 -50 -15 0
-52 -47 -17 -59 -58 -57 -46 -16 -55 -54 -53 -15 -50 -49 -48 -20 -19 -18 -64 -62 -61 0
-57 -58 -59 -17 -47 -52 -61 -62 -18 -48 -53 -64 -19 -49 -54 -20 -50 -55 -15 -16 -46 0
-57 -53 -48 -18 -62 -61 -52 -47 -17 -59 -58 -46 -16 -55 -54 -15 -50 -49 -20 -19 -64 0
-61 -62 -18 -48 -53 -57 -64 -19 -49 -54 -58 -20 -50 -55 -59 -15 -16 -17 -46 -47 -52 0
-61 -58 -54 -49 -19 -64 -57 -53 -48 -18 -62 -52 -47 -17 -59 -46 -16 -55 -15 -50 -20 0
-64 -19 -49 -54 -58 -61 -20 -50 -55 -59 -62 -15 -16 -17 -18 -46 -47 -48 -52 -53 -57 0
-20 -50 -55 -59 -62 -64 -15 -16 -17 -18 -19 -46 -47 -48 -49 -52 -53 -54 -57 -58 -61 0
-64 -62 -59 -55 -50 -20 -61 -58 -54 -49 -19 -57 -53 -48 -18 -52 -47 -17 -46 -16 -15 0
-15 -16 -17 -18 -19 -21 -46 -47 -48 -49 -51 -52 -53 -54 -56 -57 -58 -60 -61 -63 -65 0
-21 -19 -18 -17 -16 -15 -65 -63 -60 -56 -51 -61 -58 -54 -49 -57 -53 -48 -52 -47 -46 0
-15 -51 -49 -48 -47 -46 -21 -19 -18 -17 -16 -65 -63 -60 -56 -61 -58 -54 -57 -53 -52 0
-46 -47 -48 -49 -51 -15 -52 -53 -54 -56 -16 -57 -58 -60 -17 -61 -63 -18 -65 -19 -21 0
-46 -16 -56 -54 -53 -52 -15 -51 -49 -48 -47 -21 -19 -18 -17 -65 -63 -60 -61 -58 -57 0
-52 -53 -54 -56 -16 -46 -57 -58 -60 -17 -47 -61 -63 -18 -48 -65 -19 -49 -21 -51 -15 0
-52 -47 -17 -60 -58 -57 -46 -16 -56 -54 -53 -15 -51 -49 -48 -21 -19 -18 -65 -63 -61 0
-57 -58 -60 -17 -47 -52 -61 -63 -18 -48 -53 -65 -19 -49 -54 -21 -51 -56 -15 -16 -46 0
-57 -53 -48 -18 -63 -61 -52 -47 -17 -60 -58 -46 -16 -56 -54 -15 -51 -49 -21 -19 -65 0
-61 -63 -18 -48 -53 -57 -65 -19 -49 -54 -58 -21 -51 -56 -60 -15 -16 -17 -46 -47 -52 0
-61 -58 -54 -49 -19 -65 -57 -53 -48 -18 -63 -52 -47 -17 -60 -46 -16 -56 -15 -51 -21 0
-65 -19 -49 -54 -58 -61 -21 -51 -56 -60 -63 -15 -16 -17 -18 -46 -47 -48 -52 -53 -57 0
-21 -51 -56 -60 -63 -65 -15 -16 -17 -18 -19 -46 -47 -48 -49 -52 -53 -54 -57 -58 -61 0
-65 -63 -60 -56 -51 -21 -61 -58 -54 -49 -19 -57 -53 -48 -18 -52 -47 -17 -46 -16 -15 0
-15 -16 -17 -18 -20 -21 -46 -47 -48 -50 -51 -52 -53 -55 -56 -57 -59 -60 -62 -63 -66 0
-21 -20 -18 -17 -16 -15 -66 -63 -60 -56 -51 -62 -59 -55 -50 -57 -53 -48 -52 -47 -46 0
-15 -51 -50 -48 -47 -46 -21 -20 -18 -17 -16 -66 -63 -60 -56 -62 -59 -55 -57 -53 -52 0
-46 -47 -48 -50 -51 -15 -52 -53 -55 -56 -16 -57 -59 -60 -17 -62 -63 -18 -66 -20 -21 0
-46 -16 -56 -55 -53 -52 -15 -51 -50 -48 -47 -21 -20 -18 -17 -66 -63 -60 -62 -59 -57 0
-52 -53 -55 -56 -16 -46 -57 -59 -60 -17 -47 -62 -63 -18 -48 -66 -20 -50 -21 -51 -15 0
-52 -47 -17 -60 -59 -57 -46 -16 -56 -55 -53 -15 -51 -50 -48 -21 -20 -18 -66 -63 -62 0
-57 -59 -60 -17 -47 -52 -62 -63 -18 -48 -53 -66 -20 -50 -55 -21 -51 -56 -15 -16 -46 0
-57 -53 -48 -18 -63 -62 -52 -47 -17 -60 -59 -46 -16 -56 -55 -15 -51 -50 -21 -20 -66 0
-62 -63 -18 -48 -53 -57 -66 -20 -50 -55 -59 -21 -51 -56 -60 -15 -16 -17 -46 -47 -52 0
-62 -59 -55 -50 -20 -66 -57 -53 -48 -18 -63 -52 -47 -17 -60 -46 -16 -56 -15 -51 -21 0
-66 -20 -50 -55 -59 -62 -21 -51 -56 -60 -63 -15 -16 -17 -18 -46 -47 -48 -52 -53 -57 0
-21 -51 -56 -60 -63 -66 -15 -16 -17 -18 -20 -46 -47 -48 -50 -52 -53 -55 -57 -59 -62 0
-66 -63 -60 -56 -51 -21 -62 -59 -55 -50 -20 -57 -53 -48 -18 -52 -47 -17 -46 -16 -15 0
-15 -16 -17 -19 -20 -21 -46 -47 -49 -50 -51 -52 -54 -55 -56 -58 -59 -60 -64 -65 -66 0
-21 -20 -19 -17 -16 -15 -66 -65 -60 -56 -51 -64 -59 -55 -50 -58 -54 -49 -52 -47 -46 0
-15 -51 -50 -49 -47 -46 -21 -20 -19 -17 -16 -66 -65 -60 -56 -64 -59 -55 -58 -54 -52 0
-46 -47 -49 -50 -51 -15 -52 -54 -55 -56 -16 -58 -59 -60 -17 -64 -65 -19 -66 -20 -21 0
-46 -16 -56 -55 -54 -52 -15 -51 -50 -49 -47 -21 -20 -19 -17 -66 -65 -60 -64 -59 -58 0
-52 -54 -55 -56 -16 -46 -58 -59 -60 -17 -47 -64 -65 -19 -49 -66 -20 -50 -21 -51 -15 0
-52 -47 -17 -60 -59 -58 -46 -16 -56 -55 -54 -15 -51 -50 -49 -21 -20 -19 -66 -65 -64 0
-58 -59 -60 -17 -47 -52 -64 -65 -19 -49 -54 -66 -20 -50 -55 -21 -51 -56 -15 -16 -46 0
-58 -54 -49 -19 -65 -64 -52 -47 -17 -60 -59 -46 -16 -56 -55 -15 -51 -50 -21 -20 -66 0
-64 -65 -19 -49 -54 -58 -66 -20 -50 -55 -59 -21 -51 -56 -60 -15 -16 -17 -46 -47 -52 0
-64 -59 -55 -50 -20 -66 -58 -54 -49 -19 -65 -52 -47 -17 -60 -46 -16 -56 -15 -51 -21 0
-66 -20 -50 -55 -59 -64 -21 -51 -56 -60 -65 -15 -16 -17 -19 -46 -47 -49 -52 -54 -58 0
-21 -51 -56 -60 -65 -66 -15 -16 -17 -19 -20 -46 -47 -49 -50 -52 -54 -55 -58 -59 -64 0
-66 -65 -60 -56 -51 -21 -64 -59 -55 -50 -20 -58 -54 -49 -19 -52 -47 -17 -46 -16 -15 0
-15 -16 -18 -19 -20 -21 -46 -48 -49 -50 -51 -53 -54 -55 -56 -61 -62 -63 -64 -65 -66 0
-21 -20 -19 -18 -16 -15 -66 -65 -63 -56 -51 -64 -62 -55 -50 -61 -54 -49 -53 -48 -46 0
-15 -51 -50 -49 -48 -46 -21 -20 -19 -18 -16 -66 -65 -63 -56 -64 -62 -55 -61 -54 -53 0
-46 -48 -49 -50 -51 -15 -53 -54 -55 -56 -16 -61 -62 -63 -18 -64 -65 -19 -66 -20 -21 0
-46 -16 -56 -55 -54 -53 -15 -51 -50 -49 -48 -21 -20 -19 -18 -66 -65 -63 -64 -62 -61 0
-53 -54 -55 -56 -16 -46 -61 -62 -63 -18 -48 -64 -65 -19 -49 -66 -20 -50 -21 -51 -15 0
-53 -48 -18 -63 -62 -61 -46 -16 -56 -55 -54 -15 -51 -50 -49 -21 -20 -19 -66 -65 -64 0
-61 -62 -63 -18 -48 -53 -64 -65 -19 -49 -54 -66 -20 -50 -55 -21 -51 -56 -15 -16 -46 0
-61 -54 -49 -19 -65 -64 -53 -48 -18 -63 -62 -46 -16 -56 -55 -15 -51 -50 -21 -20 -66 0
-64 -65 -19 -49 -54 -61 -66 -20 -50 -55 -62 -21 -51 -56 -63 -15 -16 -18 -46 -48 -53 0
-64 -62 -55 -50 -20 -66 -61 -54 -49 -19 -65 -53 -48 -18 -63 -46 -16 -56 -15 -51 -21 0
-66 -20 -50 -55 -62 -64 -21 -51 -56 -63 -65 -15 -16 -18 -19 -46 -48 -49 -53 -54 -61 0
-21 -51 -56 -63 -65 -66 -15 -16 -18 -19 -20 -46 -48 -49 -50 -53 -54 -55 -61 -62 -64 0
-66 -65 -63 -56 -51 -21 -64 -62 -55 -50 -20 -61 -54 -49 -19 -53 -48 -18 -46 -16 -15 0
-15 -17 -18 -19 -20 -21 -47 -48 -49 -50 -51 -57 -58 -59 -60 -61 -62 -63 -64 -65 -66 0
-21 -20 -19 -18 -17 -15 -66 -65 -63 -60 -51 -64 -62 -59 -50 -61 -58 -49 -57 -48 -47 0
-15 -51 -50 -49 -48 -47 -21 -20 -19 -18 -17 -66 -65 -63 -60 -64 -62 -59 -61 -58 -57 0
-47 -48 -49 -50 -51 -15 -57 -58 -59 -60 -17 -61 -62 -63 -18 -64 -65 -19 -66 -20 -21 0
-47 -17 -60 -59 -58 -57 -15 -51 -50 -49 -48 -21 -20 -19 -18 -66 -65 -63 -64 -62 -61 0
-57 -58 -59 -60 -17 -47 -61 -62 -63 -18 -48 -64 -65 -19 -49 -66 -20 -50 -21 -51 -15 0
-57 -48 -18 -63 -62 -61 -47 -17 -60 -59 -58 -15 -51 -50 -49 -21 -20 -19 -66 -65 -64 0
-61 -62 -63 -18 -48 -57 -64 -65 -19 -49 -58 -66 -20 -50 -59 -21 -51 -60 -15 -17 -47 0
-61 -58 -49 -19 -65 -64 -57 -48 -18 -63 -62 -47 -17 -60 -59 -15 -51 -50 -21 -20 -66 0
-64 -65 -19 -49 -58 -61 -66 -20 -50 -59 -62 -21 -51 -60 -63 -15 -17 -18 -47 -48 -57 0
-64 -62 -59 -50 -20 -66 -61 -58 -49 -19 -65 -57 -48 -18 -63 -47 -17 -60 -15 -51 -21 0
-66 -20 -50 -59 -62 -64 -21 -51 -60 -63 -65 -15 -17 -18 -19 -47 -48 -49 -57 -58 -61 0
-21 -51 -60 -63 -65 -66 -15 -17 -18 -19 -20 -47 -48 -49 -50 -57 -58 -59 -61 -62 -64 0
-66 -65 -63 -60 -51 -21 -64 -62 -59 -50 -20 -61 -58 -49 -19 -57 -48 -18 -47 -17 -15 0
-16 -17 -18 -19 -20 -21 -52 -53 -54 -55 -56 -57 -58 -59 -60 -61 -62 -63 -64 -65 -66 0
-21 -20 -19 -18 -17 -16 -66 -65 -63 -60 -56 -64 -62 -59 -55 -61 -58 -54 -57 -53 -52 0
-16 -56 -55 -54 -53 -52 -21 -20 -19 -18 -17 -66 -65 -63 -60 -64 -62 -59 -61 -58 -57 0
-52 -53 -54 -55 -56 -16 -57 -58 -59 -60 -17 -61 -62 -63 -18 -64 -65 -19 -66 -20 -21 0
-52 -17 -60 -59 -58 -57 -16 -56 -55 -54 -53 -21 -20 -19 -18 -66 -65 -63 -64 -62 -61 0
-57 -58 -59 -60 -17 -52 -61 -62 -63 -18 -53 -64 -65 -19 -54 -66 -20 -55 -21 -56 -16 0
-57 -53 -18 -63 -62 -61 -52 -17 -60 -59 -58 -16 -56 -55 -54 -21 -20 -19 -66 -65 -64 0
-61 -62 -63 -18 -53 -57 -64 -65 -19 -54 -58 -66 -20 -55 -59 -21 -56 -60 -16 -17 -52 0
-61 -58 -54 -19 -65 -64 -57 -53 -18 -63 -62 -52 -17 -60 -59 -16 -56 -55 -21 -20 -66 0
-64 -65 -19 -54 -58 -61 -66 -20 -55 -59 -62 -21 -56 -60 -63 -16 -17 -18 -52 -53 -57 0
-64 -62 -59 -55 -20 -66 -61 -58 -54 -19 -65 -57 -53 -18 -63 -52 -17 -60 -16 -56 -21 0
-66 -20 -55 -59 -62 -64 -21 -56 -60 -63 -65 -16 -17 -18 -19 -52 -53 -54 -57 -58 -61 0
-21 -56 -60 -63 -65 -66 -16 -17 -18 -19 -20 -52 -53 -54 -55 -57 -58 -59 -61 -62 -64 0
-66 -65 -63 -60 -56 -21 -64 -62 -59 -55 -20 -61 -58 -54 -19 -57 -53 -18 -52 -17 -16 0
-22 -23 -24 -25 -26 -27 -31 -32 -33 -34 -35 -39 -40 -41 -42 -46 -47 -48 -52 -53 -57 0
-27 -26 -25 -24 -23 -22 -57 -53 -48 -42 -35 -52 -47 -41 -34 -46 -40 -33 -39 -32 -31 0
-22 -35 -34 -33 -32 -31 -27 -26 -25 -24 -23 -57 -53 -48 -42 -52 -47 -41 -46 -40 -39 0
-31 -32 -33 -34 -35 -22 -39 -40 -41 -42 -23 -46 -47 -48 -24 -52 -53 -25 -57 -26 -27 0
-31 -23 -42 -41 -40 -39 -22 -35 -34 -33 -32 -27 -26 -25 -24 -57 -53 -48 -52 -47 -46 0
-39 -40 -41 -42 -23 -31 -46 -47 -48 -24 -32 -52 -53 -25 -33 -57 -26 -34 -27 -35 -22 0
-39 -32 -24 -48 -47 -46 -31 -23 -42 -41 -40 -22 -35 -34 -33 -27 -26 -25 -57 -53 -52 0
-46 -47 -48 -24 -32 -39 -52 -53 -25 -33 -40 -57 -26 -34 -41 -27 -35 -42 -22 -23 -31 0
-46 -40 -33 -25 -53 -52 -39 -32 -24 -48 -47 -31 -23 -42 -41 -22 -35 -34 -27 -26 -57 0
-52 -53 -25 -33 -40 -46 -57 -26 -34 -41 -47 -27 -35 -42 -48 -22 -23 -24 -31 -32 -39 0
-52 -47 -41 -34 -26 -57 -46 -40 -33 -25 -53 -39 -32 -24 -48 -31 -23 -42 -22 -35 -27 0
-57 -26 -34 -41 -47 -52 -27 -35 -42 -48 -53 -22 -23 -24 -25 -31 -32 -33 -39 -40 -46 0
-27 -35 -42 -48 -53 -57 -22 -23 -24 -25 -26 -31 -32 -33 -34 -39 -40 -41 -46 -47 -52 0
-57 -53 -48 -42 -35 -27 -52 -47 -41 -34 -26 -46 -40 -33 -25 -39 -32 -24 -31 -23 -22 0
-22 -23 -24 -25 -26 -28 -31 -32 -33 -34 -36 -39 -40 -41 -43 -46 -47 -49 -52 -54 -58 0
-28 -26 -25 -24 -23 -22 -58 -54 -49 -43 -36 -52 -47 -41 -34 -46 -40 -33 -39 -32 -31 0
-22 -36 -34 -33 -32 -31 -28 -26 -25 -24 -23 -58 -54 -49 -43 -52 -47 -41 -46 -40 -39 0
-31 -32 -33 -34 -36 -22 -39 -40 -41 -43 -23 -46 -47 -49 -24 -52 -54 -25 -58 -26 -28 0
-31 -23 -43 -41 -40 -39 -22 -36 -34 -33 -32 -28 -26 -25 -24 -58 -54 -49 -52 -47 -46 0
-39 -40 -41 -43 -23 -31 -46 -47 -49 -24 -32 -52 -54 -25 -33 -58 -26 -34 -28 -36 -22 0
-39 -32 -24 -49 -47 -46 -31 -23 -43 -41 -40 -22 -36 -34 -33 -28 -26 -25 -58 -54 -52 0
-46 -47 -49 -24 -32 -39 -52 -54 -25 -33 -40 -58 -26 -34 -41 -28 -36 -43 -22 -23 -31 0
-46 -40 -33 -25 -54 -52 -39 -32 -24 -49 -47 -31 -23 -43 -41 -22 -36 -34 -28 -26 -58 0
-52 -54 -25 -33 -40 -46 -58 -26 -34 -41 -47 -28 -36 -43 -49 -22 -23 -24 -31 -32 -39 0
-52 -47 -41 -34 -26 -58 -46 -40 -33 -25 -54 -39 -32 -24 -49 -31 -23 -43 -22 -36 -28 0
-58 -26 -34 -41 -47 -52 -28 -36 -43 -49 -54 -22 -23 -24 -25 -31 -32 -33 -39 -40 -46 0
-28 -36 -43 -49 -54 -58 -22 -23 -24 -25 -26 -31 -32 -33 -34 -39 -40 -41 -46 -47 -52 0
-58 -54 -49 -43 -36 -28 -52 -47 -41 -34 -26 -46 -40 -33 -25 -39 -32 -24 -31 -23 -22 0
-22 -23 -24 -25 -26 -29 -31 -32 -33 -34 -37 -39 -40 -41 -44 -46 -47 -50 -52 -55 -59 0
-29 -26 -25 -24 -23 -22 -59 -55 -50 -44 -37 -52 -47 -41 -34 -46 -40 -33 -39 -32 -31 0
-22 -37 -34 -33 -32 -31 -29 -26 -25 -24 -23 -59 -55 -50 -44 -52 -47 -41 -46 -40 -39 0
-31 -32 -33 -34 -37 -22 -39 -40 -41 -44 -23 -46 -47 -50 -24 -52 -55 -25 -59 -26 -29 0
-31 -23 -44 -41 -40 -39 -22 -37 -34 -33 -32 -29 -26 -25 -24 -59 -55 -50 -52 -47 -46 0
-39 -40 -41 -44 -23 -31 -46 -47 -50 -24 -32 -52 -55 -25 -33 -59 -26 -34 -29 -37 -22 0
-39 -32 -24 -50 -47 -46 -31 -23 -44 -41 -40 -22 -37 -34 -33 -29 -26 -25 -59 -55 -52 0
-46 -47 -50 -24 -32 -39 -52 -55 -25 -33 -40 -59 -26 -34 -41 -29 -37 -44 -22 -23 -31 0
-46 -40 -33 -25 -55 -52 -39 -32 -24 -50 -47 -31 -23 -44 -41 -22 -37 -34 -29 -26 -59 0
-52 -55 -25 -33 -40 -46 -59 -26 -34 -41 -47 -29 -37 -44 -50 -22 -23 -24 -31 -32 -39 0
-52 -47 -41 -34 -26 -59 -46 -40 -33 -25 -55 -39 -32 -24 -50 -31 -23 -44 -22 -37 -29 0
-59 -26 -34 -41 -47 -52 -29 -37 -44 -50 -55 -22 -23 -24 -25 -31 -32 -33 -39 -40 -46 0
-29 -37 -44 -50 -55 -59 -22 -23 -24 -25 -26 -31 -32 -33 -34 -39 -40 -41 -46 -47 -52 0
-59 -55 -50 -44 -37 -29 -52 -47 -41 -34 -26 -46 -40 -33 -25 -39 -32 -24 -31 -23 -22 0
-22 -23 -24 -25 -26 -30 -31 -32 -33 -34 -38 -39 -40 -41 -45 -46 -47 -51 -52 -56 -60 0
-30 -26 -25 -24 -23 -22 -60 -56 -51 -45 -38 -52 -47 -41 -34 -46 -40 -33 -39 -32 -31 0
-22 -38 -34 -33 -32 -31 -30 -26 -25 -24 -23 -60 -56 -51 -45 -52 -47 -41 -46 -40 -39 0
-31 -32 -33 -34 -38 -22 -39 -40 -41 -45 -23 -46 -47 -51 -24 -52 -56 -25 -60 -26 -30 0
-31 -23 -45 -41 -40 -39 -22 -38 -34 -33 -32 -30 -26 -25 -24 -60 -56 -51 -52 -47 -46 0
-39 -40 -41 -45 -23 -31 -46 -47 -51 -24 -32 -52 -56 -25 -33 -60 -26 -34 -30 -38 -22 0
-39 -32 -24 -51 -47 -46 -31 -23 -45 -41 -40 -22 -38 -34 -33 -30 -26 -25 -60 -56 -52 0
-46 -47 -51 -24 -32 -39 -52 -56 -25 -33 -40 -60 -26 -34 -41 -30 -38 -45 -22 -23 -31 0
-46 -40 -33 -25 -56 -52 -39 -32 -24 -51 -47 -31 -23 -45 -41 -22 -38 -34 -30 -26 -60 0
-52 -56 -25 -33 -40 -46 -60 -26 -34 -41 -47 -30 -38 -45 -51 -22 -23 -24 -31 -32 -39 0
-52 -47 -41 -34 -26 -60 -46 -40 -33 -25 -56 -39 -32 -24 -51 -31 -23 -45 -22 -38 -30 0
-60 -26 -34 -41 -47 -52 -30 -38 -45 -51 -56 -22 -23 -24 -25 -31 -32 -33 -39 -40 -46 0
-30 -38 -45 -51 -56 -60 -22 -23 -24 -25 -26 -31 -32 -33 -34 -39 -40 -41 -46 -47 -52 0
-60 -56 -51 -45 -38 -30 -52 -47 -41 -34 -26 -46 -40 -33 -25 -39 -32 -24 -31 -23 -22 0
-22 -23 -24 -25 -27 -28 -31 -32 -33 -35 -36 -39 -40 -42 -43 -46 -48 -49 -53 -54 -61 0
-28 -27 -25 -24 -23 -22 -61 -54 -49 -43 -36 -53 -48 -42 -35 -46 -40 -33 -39 -32 -31 0
-22 -36 -35 -33 -32 -31 -28 -27 -25 -24 -23 -61 -54 -49 -43 -53 -48 -42 -46 -40 -39 0
-31 -32 -33 -35 -36 -22 -39 -40 -42 -43 -23 -46 -48 -49 -24 -53 -54 -25 -61 -27 -28 0
-31 -23 -43 -42 -40 -39 -22 -36 -35 -33 -32 -28 -27 -25 -24 -61 -54 -49 -53 -48 -46 0
-39 -40 -42 -43 -23 -31 -46 -48 -49 -24 -32 -53 -54 -25 -33 -61 -27 -35 -28 -36 -22 0
-39 -32 -24 -49 -48 -46 -31 -23 -43 -42 -40 -22 -36 -35 -33 -28 -27 -25 -61 -54 -53 0
-46 -48 -49 -24 -32 -39 -53 -54 -25 -33 -40 -61 -27 -35 -42 -28 -36 -43 -22 -23 -31 0
-46 -40 -33 -25 -54 -53 -39 -32 -24 -49 -48 -31 -23 -43 -42 -22 -36 -35 -28 -27 -61 0
-53 -54 -25 -33 -40 -46 -61 -27 -35 -42 -48 -28 -36 -43 -49 -22 -23 -24 -31 -32 -39 0
-53 -48 -42 -35 -27 -61 -46 -40 -33 -25 -54 -39 -32 -24 -49 -31 -23 -43 -22 -36 -28 0
-61 -27 -35 -42 -48 -53 -28 -36 -43 -49 -54 -22 -23 -24 -25 -31 -32 -33 -39 -40 -46 0
-28 -36 -43 -49 -54 -61 -22 -23 -24 -25 -27 -31 -32 -33 -35 -39 -40 -42 -46 -48 -53 0
-61 -54 -49 -43 -36 -28 -53 -48 -42 -35 -27 -46 -40 -33 -25 -39 -32 -24 -31 -23 -22 0
-22 -23 -24 -25 -27 -29 -31 -32 -33 -35 -37 -39 -40 -42 -44 -46 -48 -50 -53 -55 -62 0
-29 -27 -25 -24 -23 -22 -62 -55 -50 -44 -37 -53 -48 -42 -35 -46 -40 -33 -39 -32 -31 0
-22 -37 -35 -33 -32 -31 -29 -27 -25 -24 -23 -62 -55 -50 -44 -53 -48 -42 -46 -40 -39 0
-31 -32 -33 -35 -37 -22 -39 -40 -42 -44 -23 -46 -48 -50 -24 -53 -55 -25 -62 -27 -29 0
-31 -23 -44 -42 -40 -39 -22 -37 -35 -33 -32 -29 -27 -25 -24 -62 -55 -50 -53 -48 -46 0
-39 -40 -42 -44 -23 -31 -46 -48 -50 -24 -32 -53 -55 -25 -33 -62 -27 -35 -29 -37 -22 0
-39 -32 -24 -50 -48 -46 -31 -23 -44 -42 -40 -22 -37 -35 -33 -29 -27 -25 -62 -55 -53 0
-46 -48 -50 -24 -32 -39 -53 -55 -25 -33 -40 -62 -27 -35 -42 -29 -37 -44 -22 -23 -31 0
-46 -40 -33 -25 -55 -53 -39 -32 -24 -50 -48 -31 -23 -44 -42 -22 -37 -35 -29 -27 -62 0
-53 -55 -25 -33 -40 -46 -62 -27 -35 -42 -48 -29 -37 -44 -50 -22 -23 -24 -31 -32 -39 0
-53 -48 -42 -35 -27 -62 -46 -40 -33 -25 -55 -39 -32 -24 -50 -31 -23 -44 -22 -37 -29 0
-62 -27 -35 -42 -48 -53 -29 -37 -44 -50 -55 -22 -23 -24 -25 -31 -32 -33 -39 -40 -46 0
-29 -37 -44 -50 -55 -62 -22 -23 -24 -25 -27 -31 -32 -33 -35 -39 -40 -42 -46 -48 -53 0
-62 -55 -50 -44 -37 -29 -53 -48 -42 -35 -27 -46 -40 -33 -25 -39 -32 -24 -31 -23 -22 0
-22 -23 -24 -25 -27 -30 -31 -32 -33 -35 -38 -39 -40 -42 -45 -46 -48 -51 -53 -56 -63 0
-30 -27 -25 -24 -23 -22 -63 -56 -51 -45 -38 -53 -48 -42 -35 -46 -40 -33 -39 -32 -31 0
-22 -38 -35 -33 -32 -31 -30 -27 -25 -24 -23 -63 -56 -51 -45 -53 -48 -42 -46 -40 -39 0
-31 -32 -33 -35 -38 -22 -39 -40 -42 -45 -23 -46 -48 -51 -24 -53 -56 -25 -63 -27 -30 0
-31 -23 -45 -42 -40 -39 -22 -38 -35 -33 -32 -30 -27 -25 -24 -63 -56 -51 -53 -48 -46 0
-39 -40 -42 -45 -23 -31 -46 -48 -51 -24 -32 -53 -56 -25 -33 -63 -27 -35 -30 -38 -22 0
-39 -32 -24 -51 -48 -46 -31 -23 -45 -42 -40 -22 -38 -35 -33 -30 -27 -25 -63 -56 -53 0
-46 -48 -51 -24 -32 -39 -53 -56 -25 -33 -40 -63 -27 -35 -42 -30 -38 -45 -22 -23 -31 0
-46 -40 -33 -25 -56 -53 -39 -32 -24 -51 -48 -31 -23 -45 -42 -22 -38 -35 -30 -27 -63 0
-53 -56 -25 -33 -40 -46 -63 -27 -35 -42 -48 -30 -38 -45 -51 -22 -23 -24 -31 -32 -39 0
-53 -48 -42 -35 -27 -63 -46 -40 -33 -25 -56 -39 -32 -24 -51 -31 -23 -45 -22 -38 -30 0
-63 -27 -35 -42 -48 -53 -30 -38 -45 -51 -56 -22 -23 -24 -25 -31 -32 -33 -39 -40 -46 0
-30 -38 -45 -51 -56 -63 -22 -23 -24 -25 -27 -31 -32 -33 -35 -39 -40 -42 -46 -48 -53 0
-63 -56 -51 -45 -38 -30 -53 -48 -42 -35 -27 -46 -40 -33 -25 -39 -32 -24 -31 -23 -22 0
-22 -23 -24 -25 -28 -29 -31 -32 -33 -36 -37 -39 -40 -43 -44 -46 -49 -50 -54 -55 -64 0
-29 -28 -25 -24 -23 -22 -64 -55 -50 -44 -37 -54 -49 -43 -36 -46 -40 -33 -39 -32 -31 0
-22 -37 -36 -33 -32 -31 -29 -28 -25 -24 -23 -64 -55 -50 -44 -54 -49 -43 -46 -40 -39 0
-31 -32 -33 -36 -37 -22 -39 -40 -43 -44 -23 -46 -49 -50 -24 -54 -55 -25 -64 -28 -29 0
-31 -23 -44 -43 -40 -39 -22 -37 -36 -33 -32 -29 -28 -25 -24 -64 -55 -50 -54 -49 -46 0
-39 -40 -43 -44 -23 -31 -46 -49 -50 -24 -32 -54 -55 -25 -33 -64 -28 -36 -29 -37 -22 0
-39 -32 -24 -50 -49 -46 -31 -23 -44 -43 -40 -22 -37 -36 -33 -29 -28 -25 -64 -55 -54 0
-46 -49 -50 -24 -32 -39 -54 -55 -25 -33 -40 -64 -28 -36 -43 -29 -37 -44 -22 -23 -31 0
-46 -40 -33 -25 -55 -54 -39 -32 -24 -50 -49 -31 -23 -44 -43 -22 -37 -36 -29 -28 -64 0
-54 -55 -25 -33 -40 -46 -64 -28 -36 -43 -49 -29 -37 -44 -50 -22 -23 -24 -31 -32 -39 0
-54 -49 -43 -36 -28 -64 -46 -40 -33 -25 -55 -39 -32 -24 -50 -31 -23 -44 -22 -37 -29 0
-64 -28 -36 -43 -49 -54 -29 -37 -44 -50 -55 -22 -23 -24 -25 -31 -32 -33 -39 -40 -46 0
-29 -37 -44 -50 -55 -64 -22 -23 -24 -25 -28 -31 -32 -33 -36 -39 -40 -43 -46 -49 -54 0
-64 -55 -50 -44 -37 -29 -54 -49 -43 -36 -28 -46 -40 -33 -25 -39 -32 -24 -31 -23 -22 0
-22 -23 -24 -25 -28 -30 -31 -32 -33 -36 -38 -39 -40 -43 -45 -46 -49 -51 -54 -56 -65 0
-30 -28 -25 -24 -23 -22 -65 -56 -51 -45 -38 -54 -49 -43 -36 -46 -40 -33 -39 -32 -31 0
-22 -38 -36 -33 -32 -31 -30 -28 -25 -24 -23 -65 -56 -51 -45 -54 -49 -43 -46 -40 -39 0
-31 -32 -33 -36 -38 -22 -39 -40 -43 -45 -23 -46 -49 -51 -24 -54 -56 -25 -65 -28 -30 0
-31 -23 -45 -43 -40 -39 -22 -38 -36 -33 -32 -30 -28 -25 -24 -65 -56 -51 -54 -49 -46 0
-39 -40 -43 -45 -23 -31 -46 -49 -51 -24 -32 -54 -56 -25 -33 -65 -28 -36 -30 -38 -22 0
-39 -32 -24 -51 -49 -46 -31 -23 -45 -43 -40 -22 -38 -36 -33 -30 -28 -25 -65 -56 -54 0
-46 -49 -51 -24 -32 -39 -54 -56 -25 -33 -40 -65 -28 -36 -43 -30 -38 -45 -22 -23 -31 0
-46 -40 -33 -25 -56 -54 -39 -32 -24 -51 -49 -31 -23 -45 -43 -22 -38 -36 -30 -28 -65 0
-54 -56 -25 -33 -40 -46 -65 -28 -36 -43 -49 -30 -38 -45 -51 -22 -23 -24 -31 -32 -39 0
-54 -49 -43 -36 -28 -65 -46 -40 -33 -25 -56 -39 -32 -24 -51 -31 -23 -45 -22 -38 -30 0
-65 -28 -36 -43 -49 -54 -30 -38 -45 -51 -56 -22 -23 -24 -25 -31 -32 -33 -39 -40 -46 0
-30 -38 -45 -51 -56 -65 -22 -23 -24 -25 -28 -31 -32 -33 -36 -39 -40 -43 -46 -49 -54 0
-65 -56 -51 -45 -38 -30 -54 -49 -43 -36 -28 -46 -40 -33 -25 -39 -32 -24 -31 -23 -22 0
-22 -23 -24 -25 -29 -30 -31 -32 -33 -37 -38 -39 -40 -44 -45 -46 -50 -51 -55 -56 -66 0
-30 -29 -25 -24 -23 -22 -66 -56 -51 -45 -38 -55 -50 -44 -37 -46 -40 -33 -39 -32 -31 0
-22 -38 -37 -33 -32 -31 -30 -29 -25 -24 -23 -66 -56 -51 -45 -55 -50 -44 -46 -40 -39 0
-31 -32 -33 -37 -38 -22 -39 -40 -44 -45 -23 -46 -50 -51 -24 -55 -56 -25 -66 -29 -30 0
-31 -23 -45 -44 -40 -39 -22 -38 -37 -33 -32 -30 -29 -25 -24 -66 -56 -51 -55 -50 -46 0
-39 -40 -44 -45 -23 -31 -46 -50 -51 -24 -32 -55 -56 -25 -33 -66 -29 -37 -30 -38 -22 0
-39 -32 -24 -51 -50 -46 -31 -23 -45 -44 -40 -22 -38 -37 -33 -30 -29 -25 -66 -56 -55 0
-46 -50 -51 -24 -32 -39 -55 -56 -25 -33 -40 -66 -29 -37 -44 -30 -38 -45 -22 -23 -31 0
-46 -40 -33 -25 -56 -55 -39 -32 -24 -51 -50 -31 -23 -45 -44 -22 -38 -37 -30 -29 -66 0
-55 -56 -25 -33 -40 -46 -66 -29 -37 -44 -50 -30 -38 -45 -51 -22 -23 -24 -31 -32 -39 0
-55 -50 -44 -37 -29 -66 -46 -40 -33 -25 -56 -39 -32 -24 -51 -31 -23 -45 -22 -38 -30 0
-66 -29 -37 -44 -50 -55 -30 -38 -45 -51 -56 -22 -23 -24 -25 -31 -32 -33 -39 -40 -46 0
-30 -38 -45 -51 -56 -66 -22 -23 -24 -25 -29 -31 -32 -33 -37 -39 -40 -44 -46 -50 -55 0
-66 -56 -51 -45 -38 -30 -55 -50 -44 -37 -29 -46 -40 -33 -25 -39 -32 -24 -31 -23 -22 0
-22 -23 -24 -26 -27 -28 -31 -32 -34 -35 -36 -39 -41 -42 -43 -47 -48 -49 -57 -58 -61 0
-28 -27 -26 -24 -23 -22 -61 -58 -49 -43 -36 -57 -48 -42 -35 -47 -41 -34 -39 -32 -31 0
-22 -36 -35 -34 -32 -31 -28 -27 -26 -24 -23 -61 -58 -49 -43 -57 -48 -42 -47 -41 -39 0
-31 -32 -34 -35 -36 -22 -39 -41 -42 -43 -23 -47 -48 -49 -24 -57 -58 -26 -61 -27 -28 0
-31 -23 -43 -42 -41 -39 -22 -36 -35 -34 -32 -28 -27 -26 -24 -61 -58 -49 -57 -48 -47 0
-39 -41 -42 -43 -23 -31 -47 -48 -49 -24 -32 -57 -58 -26 -34 -61 -27 -35 -28 -36 -22 0
-39 -32 -24 -49 -48 -47 -31 -23 -43 -42 -41 -22 -36 -35 -34 -28 -27 -26 -61 -58 -57 0
-47 -48 -49 -24 -32 -39 -57 -58 -26 -34 -41 -61 -27 -35 -42 -28 -36 -43 -22 -23 -31 0
-47 -41 -34 -26 -58 -57 -39 -32 -24 -49 -48 -31 -23 -43 -42 -22 -36 -35 -28 -27 -61 0
-57 -58 -26 -34 -41 -47 -61 -27 -35 -42 -48 -28 -36 -43 -49 -22 -23 -24 -31 -32 -39 0
-57 -48 -42 -35 -27 -61 -47 -41 -34 -26 -58 -39 -32 -24 -49 -31 -23 -43 -22 -36 -28 0
-61 -27 -35 -42 -48 -57 -28 -36 -43 -49 -58 -22 -23 -24 -26 -31 -32 -34 -39 -41 -47 0
-28 -36 -43 -49 -58 -61 -22 -23 -24 -26 -27 -31 -32 -34 -35 -39 -41 -42 -47 -48 -57 0
-61 -58 -49 -43 -36 -28 -57 -48 -42 -35 -27 -47 -41 -34 -26 -39 -32 -24 -31 -23 -22 0
-22 -23 -24 -26 -27 -29 -31 -32 -34 -35 -37 -39 -41 -42 -44 -47 -48 -50 -57 -59 -62 0
-29 -27 -26 -24 -23 -22 -62 -59 -50 -44 -37 -57 -48 -42 -35 -47 -41 -34 -39 -32 -31 0
-22 -37 -35 -34 -32 -31 -29 -27 -26 -24 -23 -62 -59 -50 -44 -57 -48 -42 -47 -41 -39 0
-31 -32 -34 -35 -37 -22 -39 -41 -42 -44 -23 -47 -48 -50 -24 -57 -59 -26 -62 -27 -29 0
-31 -23 -44 -42 -41 -39 -22 -37 -35 -34 -32 -29 -27 -26 -24 -62 -59 -50 -57 -48 -47 0
-39 -41 -42 -44 -23 -31 -47 -48 -50 -24 -32 -57 -59 -26 -34 -62 -27 -35 -29 -37 -22 0
-39 -32 -24 -50 -48 -47 -31 -23 -44 -42 -41 -22 -37 -35 -34 -29 -27 -26 -62 -59 -57 0
-47 -48 -50 -24 -32 -39 -57 -59 -26 -34 -41 -62 -27 -35 -42 -29 -37 -44 -22 -23 -31 0
-47 -41 -34 -26 -59 -57 -39 -32 -24 -50 -48 -31 -23 -44 -42 -22 -37 -35 -29 -27 -62 0
-57 -59 -26 -34 -41 -47 -62 -27 -35 -42 -48 -29 -37 -44 -50 -22 -23 -24 -31 -32 -39 0
-57 -48 -42 -35 -27 -62 -47 -41 -34 -26 -59 -39 -32 -24 -50 -31 -23 -44 -22 -37 -29 0
-62 -27 -35 -42 -48 -57 -29 -37 -44 -50 -59 -22 -23 -24 -26 -31 -32 -34 -39 -41 -47 0
-29 -37 -44 -50 -59 -62 -22 -23 -24 -26 -27 -31 -32 -34 -35 -39 -41 -42 -47 -48 -57 0
-62 -59 -50 -44 -37 -29 -57 -48 -42 -35 -27 -47 -41 -34 -26 -39 -32 -24 -31 -23 -22 0
-22 -23 -24 -26 -27 -30 -31 -32 -34 -35 -38 -39 -41 -42 -45 -47 -48 -51 -57 -60 -63 0
-30 -27 -26 -24 -23 -22 -63 -60 -51 -45 -38 -57 -48 -42 -35 -47 -41 -34 -39 -32 -31 0
-22 -38 -35 -34 -32 -31 -30 -27 -26 -24 -23 -63 -60 -51 -45 -57 -48 -42 -47 -41 -39 0
-31 -32 -34 -35 -38 -22 -39 -41 -42 -45 -23 -47 -48 -51 -24 -57 -60 -26 -63 -27 -30 0
-31 -23 -45 -42 -41 -39 -22 -38 -35 -34 -32 -30 -27 -26 -24 -63 -60 -51 -57 -48 -47 0
-39 -41 -42 -45 -23 -31 -47 -48 -51 -24 -32 -57 -60 -26 -34 -63 -27 -35 -30 -38 -22 0
-39 -32 -24 -51 -48 -47 -31 -23 -45 -42 -41 -22 -38 -35 -34 -30 -27 -26 -63 -60 -57 0
-47 -48 -51 -24 -32 -39 -57 -60 -26 -34 -41 -63 -27 -35 -42 -30 -38 -45 -22 -23 -31 0
-47 -41 -34 -26 -60 -57 -39 -32 -24 -51 -48 -31 -23 -45 -42 -22 -38 -35 -30 -27 -63 0
-57 -60 -26 -34 -41 -47 -63 -27 -35 -42 -48 -30 -38 -45 -51 -22 -23 -24 -31 -32 -39 0
-57 -48 -42 -35 -27 -63 -47 -41 -34 -26 -60 -39 -32 -24 -51 -31 -23 -45 -22 -38 -30 0
-63 -27 -35 -42 -48 -57 -30 -38 -45 -51 -60 -22 -23 -24 -26 -31 -32 -34 -39 -41 -47 0
-30 -38 -45 -51 -60 -63 -22 -23 -24 -26 -27 -31 -32 -34 -35 -39 -41 -42 -47 -48 -57 0
-63 -60 -51 -45 -38 -30 -57 -48 -42 -35 -27 -47 -41 -34 -26 -39 -32 -24 -31 -23 -22 0
-22 -23 -24 -26 -28 -29 -31 -32 -34 -36 -37 -39 -41 -43 -44 -47 -49 -50 -58 -59 -64 0
-29 -28 -26 -24 -23 -22 -64 -59 -50 -44 -37 -58 -49 -43 -36 -47 -41 -34 -39 -32 -31 0
-22 -37 -36 -34 -32 -31 -29 -28 -26 -24 -23 -64 -59 -50 -44 -58 -49 -43 -47 -41 -39 0
-31 -32 -34 -36 -37 -22 -39 -41 -43 -44 -23 -47 -49 -50 -24 -58 -59 -26 -64 -28 -29 0
-31 -23 -44 -43 -41 -39 -22 -37 -36 -34 -32 -29 -28 -26 -24 -64 -59 -50 -58 -49 -47 0
-39 -41 -43 -44 -23 -31 -47 -49 -50 -24 -32 -58 -59 -26 -34 -64 -28 -36 -29 -37 -22 0
-39 -32 -24 -50 -49 -47 -31 -23 -44 -43 -41 -22 -37 -36 -34 -29 -28 -26 -64 -59 -58 0
-47 -49 -50 -24 -32 -39 -58 -59 -26 -34 -41 -64 -28 -36 -43 -29 -37 -44 -22 -23 -31 0
-47 -41 -34 -26 -59 -58 -39 -32 -24 -50 -49 -31 -23 -44 -43 -22 -37 -36 -29 -28 -64 0
-58 -59 -26 -34 -41 -47 -64 -28 -36 -43 -49 -29 -37 -44 -50 -22 -23 -24 -31 -32 -39 0
-58 -49 -43 -36 -28 -64 -47 -41 -34 -26 -59 -39 -32 -24 -50 -31 -23 -44 -22 -37 -29 0
-64 -28 -36 -43 -49 -58 -29 -37 -44 -50 -59 -22 -23 -24 -26 -31 -32 -34 -39 -41 -47 0
-29 -37 -44 -50 -59 -64 -22 -23 -24 -26 -28 -31 -32 -34 -36 -39 -41 -43 -47 -49 -58 0
-64 -59 -50 -44 -37 -29 -58 -49 -43 -36 -28 -47 -41 -34 -26 -39 -32 -24 -31 -23 -22 0
-22 -23 -24 -26 -28 -30 -31 -32 -34 -36 -38 -39 -41 -43 -45 -47 -49 -51 -58 -60 -65 0
-30 -28 -26 -24 -23 -22 -65 -60 -51 -45 -38 -58 -49 -43 -36 -47 -41 -34 -39 -32 -31 0
-22 -38 -36 -34 -32 -31 -30 -28 -26 -24 -23 -65 -60 -51 -45 -58 -49 -43 -47 -41 -39 0
-31 -32 -34 -36 -38 -22 -39 -41 -43 -45 -23 -47 -49 -51 -24 -58 -60 -26 -65 -28 -30 0
-31 -23 -45 -43 -41 -39 -22 -38 -36 -34 -32 -30 -28 -26 -24 -65 -60 -51 -58 -49 -47 0
-39 -41 -43 -45 -23 -31 -47 -49 -51 -24 -32 -58 -60 -26 -34 -65 -28 -36 -30 -38 -22 0
-39 -32 -24 -51 -49 -47 -31 -23 -45 -43 -41 -22 -38 -36 -34 -30 -28 -26 -65 -60 -58 0
-47 -49 -51 -24 -32 -39 -58 -60 -26 -34 -41 -65 -28 -36 -43 -30 -38 -45 -22 -23 -31 0
-47 -41 -34 -26 -60 -58 -39 -32 -24 -51 -49 -31 -23 -45 -43 -22 -38 -36 -30 -28 -65 0
-58 -60 -26 -34 -41 -47 -65 -28 -36 -43 -49 -30 -38 -45 -51 -22 -23 -24 -31 -32 -39 0
-58 -49 -43 -36 -28 -65 -47 -41 -34 -26 -60 -39 -32 -24 -51 -31 -23 -45 -22 -38 -30 0
-65 -28 -36 -43 -49 -58 -30 -38 -45 -51 -60 -22 -23 -24 -26 -31 -32 -34 -39 -41 -47 0
-30 -38 -45 -51 -60 -65 -22 -23 -24 -26 -28 -31 -32 -34 -36 -39 -41 -43 -47 -49 -58 0
-65 -60 -51 -45 -38 -30 -58 -49 -43 -36 -28 -47 -41 -34 -26 -39 -32 -24 -31 -23 -22 0
-22 -23 -24 -26 -29 -30 -31 -32 -34 -37 -38 -39 -41 -44 -45 -47 -50 -51 -59 -60 -66 0
-30 -29 -26 -24 -23 -22 -66 -60 -51 -45 -38 -59 -50 -44 -37 -47 -41 -34 -39 -32 -31 0
-22 -38 -37 -34 -32 -31 -30 -29 -26 -24 -23 -66 -60 -51 -45 -59 -50 -44 -47 -41 -39 0
-31 -32 -34 -37 -38 -22 -39 -41 -44 -45 -23 -47 -50 -51 -24 -59 -60 -26 -66 -29 -30 0
-31 -23 -45 -44 -41 -39 -22 -38 -37 -34 -32 -30 -29 -26 -24 -66 -60 -51 -59 -50 -47 0
-39 -41 -44 -45 -23 -31 -47 -50 -51 -24 -32 -59 -60 -26 -34 -66 -29 -37 -30 -38 -22 0
-39 -32 -24 -51 -50 -47 -31 -23 -45 -44 -41 -22 -38 -37 -34 -30 -29 -26 -66 -60 -59 0
-47 -50 -51 -24 -32 -39 -59 -60 -26 -34 -41 -66 -29 -37 -44 -30 -38 -45 -22 -23 -31 0
-47 -41 -34 -26 -60 -59 -39 -32 -24 -51 -50 -31 -23 -45 -44 -22 -38 -37 -30 -29 -66 0
-59 -60 -26 -34 -41 -47 -66 -29 -37 -44 -50 -30 -38 -45 -51 -22 -23 -24 -31 -32 -39 0
-59 -50 -44 -37 -29 -66 -47 -41 -34 -26 -60 -39 -32 -24 -51 -31 -23 -45 -22 -38 -30 0
-66 -29 -37 -44 -50 -59 -30 -38 -45 -51 -60 -22 -23 -24 -26 -31 -32 -34 -39 -41 -47 0
-30 -38 -45 -51 -60 -66 -22 -23 -24 -26 -29 -31 -32 -34 -37 -39 -41 -44 -47 -50 -59 0
-66 -60 -51 -45 -38 -30 -59 -50 -44 -37 -29 -47 -41 -34 -26 -39 -32 -24 -31 -23 -22 0
-22 -23 -24 -27 -28 -29 -31 -32 -35 -36 -37 -39 -42 -43 -44 -48 -49 -50 -61 -62 -64 0
-29 -28 -27 -24 -23 -22 -64 -62 -50 -44 -37 -61 -49 -43 -36 -48 -42 -35 -39 -32 -31 0
-22 -37 -36 -35 -32 -31 -29 -28 -27 -24 -23 -64 -62 -50 -44 -61 -49 -43 -48 -42 -39 0
-31 -32 -35 -36 -37 -22 -39 -42 -43 -44 -23 -48 -49 -50 -24 -61 -62 -27 -64 -28 -29 0
-31 -23 -44 -43 -42 -39 -22 -37 -36 -35 -32 -29 -28 -27 -24 -64 -62 -50 -61 -49 -48 0
-39 -42 -43 -44 -23 -31 -48 -49 -50 -24 -32 -61 -62 -27 -35 -64 -28 -36 -29 -37 -22 0
-39 -32 -24 -50 -49 -48 -31 -23 -44 -43 -42 -22 -37 -36 -35 -29 -28 -27 -64 -62 -61 0
-48 -49 -50 -24 -32 -39 -61 -62 -27 -35 -42 -64 -28 -36 -43 -29 -37 -44 -22 -23 -31 0
-48 -42 -35 -27 -62 -61 -39 -32 -24 -50 -49 -31 -23 -44 -43 -22 -37 -36 -29 -28 -64 0
-61 -62 -27 -35 -42 -48 -64 -28 -36 -43 -49 -29 -37 -44 -50 -22 -23 -24 -31 -32 -39 0
-61 -49 -43 -36 -28 -64 -48 -42 -35 -27 -62 -39 -32 -24 -50 -31 -23 -44 -22 -37 -29 0
-64 -28 -36 -43 -49 -61 -29 -37 -44 -50 -62 -22 -23 -24 -27 -31 -32 -35 -39 -42 -48 0
-29 -37 -44 -50 -62 -64 -22 -23 -24 -27 -28 -31 -32 -35 -36 -39 -42 -43 -48 -49 -61 0
-64 -62 -50 -44 -37 -29 -61 -49 -43 -36 -28 -48 -42 -35 -27 -39 -32 -24 -31 -23 -22 0
-22 -23 -24 -27 -28 -30 -31 -32 -35 -36 -38 -39 -42 -43 -45 -48 -49 -51 -61 -63 -65 0
-30 -28 -27 -24 -23 -22 -65 -63 -51 -45 -38 -61 -49 -43 -36 -48 -42 -35 -39 -32 -31 0
-22 -38 -36 -35 -32 -31 -30 -28 -27 -24 -23 -65 -63 -51 -45 -61 -49 -43 -48 -42 -39 0
-31 -32 -35 -36 -38 -22 -39 -42 -43 -45 -23 -48 -49 -51 -24 -61 -63 -27 -65 -28 -30 0
-31 -23 -45 -43 -42 -39 -22 -38 -36 -35 -32 -30 -28 -27 -24 -65 -63 -51 -61 -49 -48 0
-39 -42 -43 -45 -23 -31 -48 -49 -51 -24 -32 -61 -63 -27 -35 -65 -28 -36 -30 -38 -22 0
-39 -32 -24 -51 -49 -48 -31 -23 -45 -43 -42 -22 -38 -36 -35 -30 -28 -27 -65 -63 -61 0
-48 -49 -51 -24 -32 -39 -61 -63 -27 -35 -42 -65 -28 -36 -43 -30 -38 -45 -22 -23 -31 0
-48 -42 -35 -27 -63 -61 -39 -32 -24 -51 -49 -31 -23 -45 -43 -22 -38 -36 -30 -28 -65 0
-61 -63 -27 -35 -42 -48 -65 -28 -36 -43 -49 -30 -38 -45 -51 -22 -23 -24 -31 -32 -39 0
-61 -49 -43 -36 -28 -65 -48 -42 -35 -27 -63 -39 -32 -24 -51 -31 -23 -45 -22 -38 -30 0
-65 -28 -36 -43 -49 -61 -30 -38 -45 -51 -63 -22 -23 -24 -27 -31 -32 -35 -39 -42 -48 0
-30 -38 -45 -51 -63 -65 -22 -23 -24 -27 -28 -31 -32 -35 -36 -39 -42 -43 -48 -49 -61 0
-65 -63 -51 -45 -38 -30 -61 -49 -43 -36 -28 -48 -42 -35 -27 -39 -32 -24 -31 -23 -22 0
-22 -23 -24 -27 -29 -30 -31 -32 -35 -37 -38 -39 -42 -44 -45 -48 -50 -51 -62 -63 -66 0
-30 -29 -27 -24 -23 -22 -66 -63 -51 -45 -38 -62 -50 -44 -37 -48 -42 -35 -39 -32 -31 0
-22 -38 -37 -35 -32 -31 -30 -29 -27 -24 -23 -66 -63 -51 -45 -62 -50 -44 -48 -42 -39 0
-31 -32 -35 -37 -38 -22 -39 -42 -44 -45 -23 -48 -50 -51 -24 -62 -63 -27 -66 -29 -30 0
-31 -23 -45 -44 -42 -39 -22 -38 -37 -35 -32 -30 -29 -27 -24 -66 -63 -51 -62 -50 -48 0
-39 -42 -44 -45 -23 -31 -48 -50 -51 -24 -32 -62 -63 -27 -35 -66 -29 -37 -30 -38 -22 0
-39 -32 -24 -51 -50 -48 -31 -23 -45 -44 -42 -22 -38 -37 -35 -30 -29 -27 -66 -63 -62 0
-48 -50 -51 -24 -32 -39 -62 -63 -27 -35 -42 -66 -29 -37 -44 -30 -38 -45 -22 -23 -31 0
-48 -42 -35 -27 -63 -62 -39 -32 -24 -51 -50 -31 -23 -45 -44 -22 -38 -37 -30 -29 -66 0
-62 -63 -27 -35 -42 -48 -66 -29 -37 -44 -50 -30 -38 -45 -51 -22 -23 -24 -31 -32 -39 0
-62 -50 -44 -37 -29 -66 -48 -42 -35 -27 -63 -39 -32 -24 -51 -31 -23 -45 -22 -38 -30 0
-66 -29 -37 -44 -50 -62 -30 -38 -45 -51 -63 -22 -23 -24 -27 -31 -32 -35 -39 -42 -48 0
-30 -38 -45 -51 -63 -66 -22 -23 -24 -27 -29 -31 -32 -35 -37 -39 -42 -44 -48 -50 -62 0
-66 -63 -51 -45 -38 -30 -62 -50 -44 -37 -29 -48 -42 -35 -27 -39 -32 -24 -31 -23 -22 0
-22 -23 -24 -28 -29 -30 -31 -32 -36 -37 -38 -39 -43 -44 -45 -49 -50 -51 -64 -65 -66 0
-30 -29 -28 -24 -23 -22 -66 -65 -51 -45 -38 -64 -50 -44 -37 -49 -43 -36 -39 -32 -31 0
-22 -38 -37 -36 -32 -31 -30 -29 -28 -24 -23 -66 -65 -51 -45 -64 -50 -44 -49 -43 -39 0
-31 -32 -36 -37 -38 -22 -39 -43 -44 -45 -23 -49 -50 -51 -24 -64 -65 -28 -66 -29 -30 0
-31 -23 -45 -44 -43 -39 -22 -38 -37 -36 -32 -30 -29 -28 -24 -66 -65 -51 -64 -50 -49 0
-39 -43 -44 -45 -23 -31 -49 -50 -51 -24 -32 -64 -65 -28 -36 -66 -29 -37 -30 -38 -22 0
-39 -32 -24 -51 -50 -49 -31 -23 -45 -44 -43 -22 -38 -37 -36 -30 -29 -28 -66 -65 -64 0
-49 -50 -51 -24 -32 -39 -64 -65 -28 -36 -43 -66 -29 -37 -44 -30 -38 -45 -22 -23 -31 0
-49 -43 -36 -28 -65 -64 -39 -32 -24 -51 -50 -31 -23 -45 -44 -22 -38 -37 -30 -29 -66 0
-64 -65 -28 -36 -43 -49 -66 -29 -37 -44 -50 -30 -38 -45 -51 -22 -23 -24 -31 -32 -39 0
-64 -50 -44 -37 -29 -66 -49 -43 -36 -28 -65 -39 -32 -24 -51 -31 -23 -45 -22 -38 -30 0
-66 -29 -37 -44 -50 -64 -30 -38 -45 -51 -65 -22 -23 -24 -28 -31 -32 -36 -39 -43 -49 0
-30 -38 -45 -51 -65 -66 -22 -23 -24 -28 -29 -31 -32 -36 -37 -39 -43 -44 -49 -50 -64 0
-66 -65 -51 -45 -38 -30 -64 -50 -44 -37 -29 -49 -43 -36 -28 -39 -32 -24 -31 -23 -22 0
-22 -23 -25 -26 -27 -28 -31 -33 -34 -35 -36 -40 -41 -42 -43 -52 -53 -54 -57 -58 -61 0
-28 -27 -26 -25 -23 -22 -61 -58 -54 -43 -36 -57 -53 -42 -35 -52 -41 -34 -40 -33 -31 0
-22 -36 -35 -34 -33 -31 -28 -27 -26 -25 -23 -61 -58 -54 -43 -57 -53 -42 -52 -41 -40 0
-31 -33 -34 -35 -36 -22 -40 -41 -42 -43 -23 -52 -53 -54 -25 -57 -58 -26 -61 -27 -28 0
-31 -23 -43 -42 -41 -40 -22 -36 -35 -34 -33 -28 -27 -26 -25 -61 -58 -54 -57 -53 -52 0
-40 -41 -42 -43 -23 -31 -52 -53 -54 -25 -33 -57 -58 -26 -34 -61 -27 -35 -28 -36 -22 0
-40 -33 -25 -54 -53 -52 -31 -23 -43 -42 -41 -22 -36 -35 -34 -28 -27 -26 -61 -58 -57 0
-52 -53 -54 -25 -33 -40 -57 -58 -26 -34 -41 -61 -27 -35 -42 -28 -36 -43 -22 -23 -31 0
-52 -41 -34 -26 -58 -57 -40 -33 -25 -54 -53 -31 -23 -43 -42 -22 -36 -35 -28 -27 -61 0
-57 -58 -26 -34 -41 -52 -61 -27 -35 -42 -53 -28 -36 -43 -54 -22 -23 -25 -31 -33 -40 0
-57 -53 -42 -35 -27 -61 -52 -41 -34 -26 -58 -40 -33 -25 -54 -31 -23 -43 -22 -36 -28 0
-61 -27 -35 -42 -53 -57 -28 -36 -43 -54 -58 -22 -23 -25 -26 -31 -33 -34 -40 -41 -52 0
-28 -36 -43 -54 -58 -61 -22 -23 -25 -26 -27 -31 -33 -34 -35 -40 -41 -42 -52 -53 -57 0
-61 -58 -54 -43 -36 -28 -57 -53 -42 -35 -27 -52 -41 -34 -26 -40 -33 -25 -31 -23 -22 0
-22 -23 -25 -26 -27 -29 -31 -33 -34 -35 -37 -40 -41 -42 -44 -52 -53 -55 -57 -59 -62 0
-29 -27 -26 -25 -23 -22 -62 -59 -55 -44 -37 -57 -53 -42 -35 -52 -41 -34 -40 -33 -31 0
-22 -37 -35 -34 -33 -31 -29 -27 -26 -25 -23 -62 -59 -55 -44 -57 -53 -42 -52 -41 -40 0
-31 -33 -34 -35 -37 -22 -40 -41 -42 -44 -23 -52 -53 -55 -25 -57 -59 -26 -62 -27 -29 0
-31 -23 -44 -42 -41 -40 -22 -37 -35 -34 -33 -29 -27 -26 -25 -62 -59 -55 -57 -53 -52 0
-40 -41 -42 -44 -23 -31 -52 -53 -55 -25 -33 -57 -59 -26 -34 -62 -27 -35 -29 -37 -22 0
-40 -33 -25 -55 -53 -52 -31 -23 -44 -42 -41 -22 -37 -35 -34 -29 -27 -26 -62 -59 -57 0
-52 -53 -55 -25 -33 -40 -57 -59 -26 -34 -41 -62 -27 -35 -42 -29 -37 -44 -22 -23 -31 0
-52 -41 -34 -26 -59 -57 -40 -33 -25 -55 -53 -31 -23 -44 -42 -22 -37 -35 -29 -27 -62 0
-57 -59 -26 -34 -41 -52 -62 -27 -35 -42 -53 -29 -37 -44 -55 -22 -23 -25 -31 -33 -40 0
-57 -53 -42 -35 -27 -62 -52 -41 -34 -26 -59 -40 -33 -25 -55 -31 -23 -44 -22 -37 -29 0
-62 -27 -35 -42 -53 -57 -29 -37 -44 -55 -59 -22 -23 -25 -26 -31 -33 -34 -40 -41 -52 0
-29 -37 -44 -55 -59 -62 -22 -23 -25 -26 -27 -31 -33 -34 -35 -40 -41 -42 -52 -53 -57 0
-62 -59 -55 -44 -37 -29 -57 -53 -42 -35 -27 -52 -41 -34 -26 -40 -33 -25 -31 -23 -22 0
-22 -23 -25 -26 -27 -30 -31 -33 -34 -35 -38 -40 -41 -42 -45 -52 -53 -56 -57 -60 -63 0
-30 -27 -26 -25 -23 -22 -63 -60 -56 -45 -38 -57 -53 -42 -35 -52 -41 -34 -40 -33 -31 0
-22 -38 -35 -34 -33 -31 -30 -27 -26 -25 -23 -63 -60 -56 -45 -57 -53 -42 -52 -41 -40 0
-31 -33 -34 -35 -38 -22 -40 -41 -42 -45 -23 -52 -53 -56 -25 -57 -60 -26 -63 -27 -30 0
-31 -23 -45 -42 -41 -40 -22 -38 -35 -34 -33 -30 -27 -26 -25 -63 -60 -56 -57 -53 -52 0
-40 -41 -42 -45 -23 -31 -52 -53 -56 -25 -33 -57 -60 -26 -34 -63 -27 -35 -30 -38 -22 0
-40 -33 -25 -56 -53 -52 -31 -23 -45 -42 -41 -22 -38 -35 -34 -30 -27 -26 -63 -60 -57 0
-52 -53 -56 -25 -33 -40 -57 -60 -26 -34 -41 -63 -27 -35 -42 -30 -38 -45 -22 -23 -31 0
-52 -41 -34 -26 -60 -57 -40 -33 -25 -56 -53 -31 -23 -45 -42 -22 -38 -35 -30 -27 -63 0
-57 -60 -26 -34 -41 -52 -63 -27 -35 -42 -53 -30 -38 -45 -56 -22 -23 -25 -31 -33 -40 0
-57 -53 -42 -35 -27 -63 -52 -41 -34 -26 -60 -40 -33 -25 -56 -31 -23 -45 -22 -38 -30 0
-63 -27 -35 -42 -53 -57 -30 -38 -45 -56 -60 -22 -23 -25 -26 -31 -33 -34 -40 -41 -52 0
-30 -38 -45 -56 -60 -63 -22 -23 -25 -26 -27 -31 -33 -34 -35 -40 -41 -42 -52 -53 -57 0
-63 -60 -56 -45 -38 -30 -57 -53 -42 -35 -27 -52 -41 -34 -26 -40 -33 -25 -31 -23 -22 0
-22 -23 -25 -26 -28 -29 -31 -33 -34 -36 -37 -40 -41 -43 -44 -52 -54 -55 -58 -59 -64 0
-29 -28 -26 -25 -23 -22 -64 -59 -55 -44 -37 -58 -54 -43 -36 -52 -41 -34 -40 -33 -31 0
-22 -37 -36 -34 -33 -31 -29 -28 -26 -25 -23 -64 -59 -55 -44 -58 -54 -43 -52 -41 -40 0
-31 -33 -34 -36 -37 -22 -40 -41 -43 -44 -23 -52 -54 -55 -25 -58 -59 -26 -64 -28 -29 0
-31 -23 -44 -43 -41 -40 -22 -37 -36 -34 -33 -29 -28 -26 -25 -64 -59 -55 -58 -54 -52 0
-40 -41 -43 -44 -23 -31 -52 -54 -55 -25 -33 -58 -59 -26 -34 -64 -28 -36 -29 -37 -22 0
-40 -33 -25 -55 -54 -52 -31 -23 -44 -43 -41 -22 -37 -36 -34 -29 -28 -26 -64 -59 -58 0
-52 -54 -55 -25 -33 -40 -58 -59 -26 -34 -41 -64 -28 -36 -43 -29 -37 -44 -22 -23 -31 0
-52 -41 -34 -26 -59 -58 -40 -33 -25 -55 -54 -31 -23 -44 -43 -22 -37 -36 -29 -28 -64 0
-58 -59 -26 -34 -41 -52 -64 -28 -36 -43 -54 -29 -37 -44 -55 -22 -23 -25 -31 -33 -40 0
-58 -54 -43 -36 -28 -64 -52 -41 -34 -26 -59 -40 -33 -25 -55 -31 -23 -44 -22 -37 -29 0
-64 -28 -36 -43 -54 -58 -29 -37 -44 -55 -59 -22 -23 -25 -26 -31 -33 -34 -40 -41 -52 0
-29 -37 -44 -55 -59 -64 -22 -23 -25 -26 -28 -31 -33 -34 -36 -40 -41 -43 -52 -54 -58 0
-64 -59 -55 -44 -37 -29 -58 -54 -43 -36 -28 -52 -41 -34 -26 -40 -33 -25 -31 -23 -22 0
-22 -23 -25 -26 -28 -30 -31 -33 -34 -36 -38 -40 -41 -43 -45 -52 -54 -56 -58 -60 -65 0
-30 -28 -26 -25 -23 -22 -65 -60 -56 -45 -38 -58 -54 -43 -36 -52 -41 -34 -40 -33 -31 0
-22 -38 -36 -34 -33 -31 -30 -28 -26 -25 -23 -65 -60 -56 -45 -58 -54 -43 -52 -41 -40 0
-31 -33 -34 -36 -38 -22 -40 -41 -43 -45 -23 -52 -54 -56 -25 -58 -60 -26 -65 -28 -30 0
-31 -23 -45 -43 -41 -40 -22 -38 -36 -34 -33 -30 -28 -26 -25 -65 -60 -56 -58 -54 -52 0
-40 -41 -43 -45 -23 -31 -52 -54 -56 -25 -33 -58 -60 -26 -34 -65 -28 -36 -30 -38 -22 0
-40 -33 -25 -56 -54 -52 -31 -23 -45 -43 -41 -22 -38 -36 -34 -30 -28 -26 -65 -60 -58 0
-52 -54 -56 -25 -33 -40 -58 -60 -26 -34 -41 -65 -28 -36 -43 -30 -38 -45 -22 -23 -31 0
-52 -41 -34 -26 -60 -58 -40 -33 -25 -56 -54 -31 -23 -45 -43 -22 -38 -36 -30 -28 -65 0
-58 -60 -26 -34 -41 -52 -65 -28 -36 -43 -54 -30 -38 -45 -56 -22 -23 -25 -31 -33 -40 0
-58 -54 -43 -36 -28 -65 -52 -41 -34 -26 -60 -40 -33 -25 -56 -31 -23 -45 -22 -38 -30 0
-65 -28 -36 -43 -54 -58 -30 -38 -45 -56 -60 -22 -23 -25 -26 -31 -33 -34 -40 -41 -52 0
-30 -38 -45 -56 -60 -65 -22 -23 -25 -26 -28 -31 -33 -34 -36 -40 -41 -43 -52 -54 -58 0
-65 -60 -56 -45 -38 -30 -58 -54 -43 -36 -28 -52 -41 -34 -26 -40 -33 -25 -31 -23 -22 0
-22 -23 -25 -26 -29 -30 -31 -33 -34 -37 -38 -40 -41 -44 -45 -52 -55 -56 -59 -60 -66 0
-30 -29 -26 -25 -23 -22 -66 -60 -56 -45 -38 -59 -55 -44 -37 -52 -41 -34 -40 -33 -31 0
-22 -38 -37 -34 -33 -31 -30 -29 -26 -25 -23 -66 -60 -56 -45 -59 -55 -44 -52 -41 -40 0
-31 -33 -34 -37 -38 -22 -40 -41 -44 -45 -23 -52 -55 -56 -25 -59 -60 -26 -66 -29 -30 0
-31 -23 -45 -44 -41 -40 -22 -38 -37 -34 -33 -30 -29 -26 -25 -66 -60 -56 -59 -55 -52 0
-40 -41 -44 -45 -23 -31 -52 -55 -56 -25 -33 -59 -60 -26 -34 -66 -29 -37 -30 -38 -22 0
-40 -33 -25 -56 -55 -52 -31 -23 -45 -44 -41 -22 -38 -37 -34 -30 -29 -26 -66 -60 -59 0
-52 -55 -56 -25 -33 -40 -59 -60 -26 -34 -41 -66 -29 -37 -44 -30 -38 -45 -22 -23 -31 0
-52 -41 -34 -26 -60 -59 -40 -33 -25 -56 -55 -31 -23 -45 -44 -22 -38 -37 -30 -29 -66 0
-59 -60 -26 -34 -41 -52 -66 -29 -37 -44 -55 -30 -38 -45 -56 -22 -23 -25 -31 -33 -40 0
-59 -55 -44 -37 -29 -66 -52 -41 -34 -26 -60 -40 -33 -25 -56 -31 -23 -45 -22 -38 -30 0
-66 -29 -37 -44 -55 -59 -30 -38 -45 -56 -60 -22 -23 -25 -26 -31 -33 -34 -40 -41 -52 0
-30 -38 -45 -56 -60 -66 -22 -23 -25 -26 -29 -31 -33 -34 -37 -40 -41 -44 -52 -55 -59 0
-66 -60 -56 -45 -38 -30 -59 -55 -44 -37 -29 -52 -41 -34 -26 -40 -33 -25 -31 -23 -22 0
-22 -23 -25 -27 -28 -29 -31 -33 -35 -36 -37 -40 -42 -43 -44 -53 -54 -55 -61 -62 -64 0
-29 -28 -27 -25 -23 -22 -64 -62 -55 -44 -37 -61 -54 -43 -36 -53 -42 -35 -40 -33 -31 0
-22 -37 -36 -35 -33 -31 -29 -28 -27 -25 -23 -64 -62 -55 -44 -61 -54 -43 -53 -42 -40 0
-31 -33 -35 -36 -37 -22 -40 -42 -43 -44 -23 -53 -54 -55 -25 -61 -62 -27 -64 -28 -29 0
-31 -23 -44 -43 -42 -40 -22 -37 -36 -35 -33 -29 -28 -27 -25 -64 -62 -55 -61 -54 -53 0
-40 -42 -43 -44 -23 -31 -53 -54 -55 -25 -33 -61 -62 -27 -35 -64 -28 -36 -29 -37 -22 0
-40 -33 -25 -55 -54 -53 -31 -23 -44 -43 -42 -22 -37 -36 -35 -29 -28 -27 -64 -62 -61 0
-53 -54 -55 -25 -33 -40 -61 -62 -27 -35 -42 -64 -28 -36 -43 -29 -37 -44 -22 -23 -31 0
-53 -42 -35 -27 -62 -61 -40 -33 -25 -55 -54 -31 -23 -44 -43 -22 -37 -36 -29 -28 -64 0
-61 -62 -27 -35 -42 -53 -64 -28 -36 -43 -54 -29 -37 -44 -55 -22 -23 -25 -31 -33 -40 0
-61 -54 -43 -36 -28 -64 -53 -42 -35 -27 -62 -40 -33 -25 -55 -31 -23 -44 -22 -37 -29 0
-64 -28 -36 -43 -54 -61 -29 -37 -44 -55 -62 -22 -23 -25 -27 -31 -33 -35 -40 -42 -53 0
-29 -37 -44 -55 -62 -64 -22 -23 -25 -27 -28 -31 -33 -35 -36 -40 -42 -43 -53 -54 -61 0
-64 -62 -55 -44 -37 -29 -61 -54 -43 -36 -28 -53 -42 -35 -27 -40 -33 -25 -31 -23 -22 0
-22 -23 -25 -27 -28 -30 -31 -33 -35 -36 -38 -40 -42 -43 -45 -53 -54 -56 -61 -63 -65 0
-30 -28 -27 -25 -23 -22 -65 -63 -56 -45 -38 -61 -54 -43 -36 -53 -42 -35 -40 -33 -31 0
-22 -38 -36 -35 -33 -31 -30 -28 -27 -25 -23 -65 -63 -56 -45 -61 -54 -43 -53 -42 -40 0
-31 -33 -35 -36 -38 -22 -40 -42 -43 -45 -23 -53 -54 -56 -25 -61 -63 -27 -65 -28 -30 0
-31 -23 -45 -43 -42 -40 -22 -38 -36 -35 -33 -30 -28 -27 -25 -65 -63 -56 -61 -54 -53 0
-40 -42 -43 -45 -23 -31 -53 -54 -56 -25 -33 -61 -63 -27 -35 -65 -28 -36 -30 -38 -22 0
-40 -33 -25 -56 -54 -53 -31 -23 -45 -43 -42 -22 -38 -36 -35 -30 -28 -27 -65 -63 -61 0
-53 -54 -56 -25 -33 -40 -61 -63 -27 -35 -42 -65 -28 -36 -43 -30 -38 -45 -22 -23 -31 0
-53 -42 -35 -27 -63 -61 -40 -33 -25 -56 -54 -31 -23 -45 -43 -22 -38 -36 -30 -28 -65 0
-61 -63 -27 -35 -42 -53 -65 -28 -36 -43 -54 -30 -38 -45 -56 -22 -23 -25 -31 -33 -40 0
-61 -54 -43 -36 -28 -65 -53 -42 -35 -27 -63 -40 -33 -25 -56 -31 -23 -45 -22 -38 -30 0
-65 -28 -36 -43 -54 -61 -30 -38 -45 -56 -63 -22 -23 -25 -27 -31 -33 -35 -40 -42 -53 0
-30 -38 -45 -56 -63 -65 -22 -23 -25 -27 -28 -31 -33 -35 -36 -40 -42 -43 -53 -54 -61 0
-65 -63 -56 -45 -38 -30 -61 -54 -43 -36 -28 -53 -42 -35 -27 -40 -33 -25 -31 -23 -22 0
-22 -23 -25 -27 -29 -30 -31 -33 -35 -37 -38 -40 -42 -44 -45 -53 -55 -56 -62 -63 -66 0
-30 -29 -27 -25 -23 -22 -66 -63 -56 -45 -38 -62 -55 -44 -37 -53 -42 -35 -40 -33 -31 0
-22 -38 -37 -35 -33 -31 -30 -29 -27 -25 -23 -66 -63 -56 -45 -62 -55 -44 -53 -42 -40 0
-31 -33 -35 -37 -38 -22 -40 -42 -44 -45 -23 -53 -55 -56 -25 -62 -63 -27 -66 -29 -30 0
-31 -23 -45 -44 -42 -40 -22 -38 -37 -35 -33 -30 -29 -27 -25 -66 -63 -56 -62 -55 -53 0
-40 -42 -44 -45 -23 -31 -53 -55 -56 -25 -33 -62 -63 -27 -35 -66 -29 -37 -30 -38 -22 0
-40 -33 -25 -56 -55 -53 -31 -23 -45 -44 -42 -22 -38 -37 -35 -30 -29 -27 -66 -63 -62 0
-53 -55 -56 -25 -33 -40 -62 -63 -27 -35 -42 -66 -29 -37 -44 -30 -38 -45 -22 -23 -31 0
-53 -42 -35 -27 -63 -62 -40 -33 -25 -56 -55 -31 -23 -45 -44 -22 -38 -37 -30 -29 -66 0
-62 -63 -27 -35 -42 -53 -66 -29 -37 -44 -55 -30 -38 -45 -56 -22 -23 -25 -31 -33 -40 0
-62 -55 -44 -37 -29 -66 -53 -42 -35 -27 -63 -40 -33 -25 -56 -31 -23 -45 -22 -38 -30 0
-66 -29 -37 -44 -55 -62 -30 -38 -45 -56 -63 -22 -23 -25 -27 -31 -33 -35 -40 -42 -53 0
-30 -38 -45 -56 -63 -66 -22 -23 -25 -27 -29 -31 -33 -35 -37 -40 -42 -44 -53 -55 -62 0
-66 -63 -56 -45 -38 -30 -62 -55 -44 -37 -29 -53 -42 -35 -27 -40 -33 -25 -31 -23 -22 0
-22 -23 -25 -28 -29 -30 -31 -33 -36 -37 -38 -40 -43 -44 -45 -54 -55 -56 -64 -65 -66 0
-30 -29 -28 -25 -23 -22 -66 -65 -56 -45 -38 -64 -55 -44 -37 -54 -43 -36 -40 -33 -31 0
-22 -38 -37 -36 -33 -31 -30 -29 -28 -25 -23 -66 -65 -56 -45 -64 -55 -44 -54 -43 -40 0
-31 -33 -36 -37 -38 -22 -40 -43 -44 -45 -23 -54 -55 -56 -25 -64 -65 -28 -66 -29 -30 0
-31 -23 -45 -44 -43 -40 -22 -38 -37 -36 -33 -30 -29 -28 -25 -66 -65 -56 -64 -55 -54 0
-40 -43 -44 -45 -23 -31 -54 -55 -56 -25 -33 -64 -65 -28 -36 -66 -29 -37 -30 -38 -22 0
-40 -33 -25 -56 -55 -54 -31 -23 -45 -44 -43 -22 -38 -37 -36 -30 -29 -28 -66 -65 -64 0
-54 -55 -56 -25 -33 -40 -64 -65 -28 -36 -43 -66 -29 -37 -44 -30 -38 -45 -22 -23 -31 0
-54 -43 -36 -28 -65 -64 -40 -33 -25 -56 -55 -31 -23 -45 -44 -22 -38 -37 -30 -29 -66 0
-64 -65 -28 -36 -43 -54 -66 -29 -37 -44 -55 -30 -38 -45 -56 -22 -23 -25 -31 -33 -40 0
-64 -55 -44 -37 -29 -66 -54 -43 -36 -28 -65 -40 -33 -25 -56 -31 -23 -45 -22 -38 -30 0
-66 -29 -37 -44 -55 -64 -30 -38 -45 -56 -65 -22 -23 -25 -28 -31 -33 -36 -40 -43 -54 0
-30 -38 -45 -56 -65 -66 -22 -23 -25 -28 -29 -31 -33 -36 -37 -40 -43 -44 -54 -55 -64 0
-66 -65 -56 -45 -38 -30 -64 -55 -44 -37 -29 -54 -43 -36 -28 -40 -33 -25 -31 -23 -22 0
-22 -23 -26 -27 -28 -29 -31 -34 -35 -36 -37 -41 -42 -43 -44 -57 -58 -59 -61 -62 -64 0
-29 -28 -27 -26 -23 -22 -64 -62 -59 -44 -37 -61 -58 -43 -36 -57 -42 -35 -41 -34 -31 0
-22 -37 -36 -35 -34 -31 -29 -28 -27 -26 -23 -64 -62 -59 -44 -61 -58 -43 -57 -42 -41 0
-31 -34 -35 -36 -37 -22 -41 -42 -43 -44 -23 -57 -58 -59 -26 -61 -62 -27 -64 -28 -29 0
-31 -23 -44 -43 -42 -41 -22 -37 -36 -35 -34 -29 -28 -27 -26 -64 -62 -59 -61 -58 -57 0
-41 -42 -43 -44 -23 -31 -57 -58 -59 -26 -34 -61 -62 -27 -35 -64 -28 -36 -29 -37 -22 0
-41 -34 -26 -59 -58 -57 -31 -23 -44 -43 -42 -22 -37 -36 -35 -29 -28 -27 -64 -62 -61 0
-57 -58 -59 -26 -34 -41 -61 -62 -27 -35 -42 -64 -28 -36 -43 -29 -37 -44 -22 -23 -31 0
-57 -42 -35 -27 -62 -61 -41 -34 -26 -59 -58 -31 -23 -44 -43 -22 -37 -36 -29 -28 -64 0
-61 -62 -27 -35 -42 -57 -64 -28 -36 -43 -58 -29 -37 -44 -59 -22 -23 -26 -31 -34 -41 0
-61 -58 -43 -36 -28 -64 -57 -42 -35 -27 -62 -41 -34 -26 -59 -31 -23 -44 -22 -37 -29 0
-64 -28 -36 -43 -58 -61 -29 -37 -44 -59 -62 -22 -23 -26 -27 -31 -34 -35 -41 -42 -57 0
-29 -37 -44 -59 -62 -64 -22 -23 -26 -27 -28 -31 -34 -35 -36 -41 -42 -43 -57 -58 -61 0
-64 -62 -59 -44 -37 -29 -61 -58 -43 -36 -28 -57 -42 -35 -27 -41 -34 -26 -31 -23 -22 0
-22 -23 -26 -27 -28 -30 -31 -34 -35 -36 -38 -41 -42 -43 -45 -57 -58 -60 -61 -63 -65 0
-30 -28 -27 -26 -23 -22 -65 -63 -60 -45 -38 -61 -58 -43 -36 -57 -42 -35 -41 -34 -31 0
-22 -38 -36 -35 -34 -31 -30 -28 -27 -26 -23 -65 -63 -60 -45 -61 -58 -43 -57 -42 -41 0
-31 -34 -35 -36 -38 -22 -41 -42 -43 -45 -23 -57 -58 -60 -26 -61 -63 -27 -65 -28 -30 0
-31 -23 -45 -43 -42 -41 -22 -38 -36 -35 -34 -30 -28 -27 -26 -65 -63 -60 -61 -58 -57 0
-41 -42 -43 -45 -23 -31 -57 -58 -60 -26 -34 -61 -63 -27 -35 -65 -28 -36 -30 -38 -22 0
-41 -34 -26 -60 -58 -57 -31 -23 -45 -43 -42 -22 -38 -36 -35 -30 -28 -27 -65 -63 -61 0
-57 -58 -60 -26 -34 -41 -61 -63 -27 -35 -42 -65 -28 -36 -43 -30 -38 -45 -22 -23 -31 0
-57 -42 -35 -27 -63 -61 -41 -34 -26 -60 -58 -31 -23 -45 -43 -22 -38 -36 -30 -28 -65 0
-61 -63 -27 -35 -42 -57 -65 -28 -36 -43 -58 -30 -38 -45 -60 -22 -23 -26 -31 -34 -41 0
-61 -58 -43 -36 -28 -65 -57 -42 -35 -27 -63 -41 -34 -26 -60 -31 -23 -45 -22 -38 -30 0
-65 -28 -36 -43 -58 -61 -30 -38 -45 -60 -63 -22 -23 -26 -27 -31 -34 -35 -41 -42 -57 0
-30 -38 -45 -60 -63 -65 -22 -23 -26 -27 -28 -31 -34 -35 -36 -41 -42 -43 -57 -58 -61 0
-65 -63 -60 -45 -38 -30 -61 -58 -43 -36 -28 -57 -42 -35 -27 -41 -34 -26 -31 -23 -22 0
-22 -23 -26 -27 -29 -30 -31 -34 -35 -37 -38 -41 -42 -44 -45 -57 -59 -60 -62 -63 -66 0
-30 -29 -27 -26 -23 -22 -66 -63 -60 -45 -38 -62 -59 -44 -37 -57 -42 -35 -41 -34 -31 0
-22 -38 -37 -35 -34 -31 -30 -29 -27 -26 -23 -66 -63 -60 -45 -62 -59 -44 -57 -42 -41 0
-31 -34 -35 -37 -38 -22 -41 -42 -44 -45 -23 -57 -59 -60 -26 -62 -63 -27 -66 -29 -30 0
-31 -23 -45 -44 -42 -41 -22 -38 -37 -35 -34 -30 -29 -27 -26 -66 -63 -60 -62 -59 -57 0
-41 -42 -44 -45 -23 -31 -57 -59 -60 -26 -34 -62 -63 -27 -35 -66 -29 -37 -30 -38 -22 0
-41 -34 -26 -60 -59 -57 -31 -23 -45 -44 -42 -22 -38 -37 -35 -30 -29 -27 -66 -63 -62 0
-57 -59 -60 -26 -34 -41 -62 -63 -27 -35 -42 -66 -29 -37 -44 -30 -38 -45 -22 -23 -31 0
-57 -42 -35 -27 -63 -62 -41 -34 -26 -60 -59 -31 -23 -45 -44 -22 -38 -37 -30 -29 -66 0
-62 -63 -27 -35 -42 -57 -66 -29 -37 -44 -59 -30 -38 -45 -60 -22 -23 -26 -31 -34 -41 0
-62 -59 -44 -37 -29 -66 -57 -42 -35 -27 -63 -41 -34 -26 -60 -31 -23 -45 -22 -38 -30 0
-66 -29 -37 -44 -59 -62 -30 -38 -45 -60 -63 -22 -23 -26 -27 -31 -34 -35 -41 -42 -57 0
-30 -38 -45 -60 -63 -66 -22 -23 -26 -27 -29 -31 -34 -35 -37 -41 -42 -44 -57 -59 -62 0
-66 -63 -60 -45 -38 -30 -62 -59 -44 -37 -29 -57 -42 -35 -27 -41 -34 -26 -31 -23 -22 0
-22 -23 -26 -28 -29 -30 -31 -34 -36 -37 -38 -41 -43 -44 -45 -58 -59 -60 -64 -65 -66 0
-30 -29 -28 -26 -23 -22 -66 -65 -60 -45 -38 -64 -59 -44 -37 -58 -43 -36 -41 -34 -31 0
-22 -38 -37 -36 -34 -31 -30 -29 -28 -26 -23 -66 -65 -60 -45 -64 -59 -44 -58 -43 -41 0
-31 -34 -36 -37 -38 -22 -41 -43 -44 -45 -23 -58 -59 -60 -26 -64 -65 -28 -66 -29 -30 0
-31 -23 -45 -44 -43 -41 -22 -38 -37 -36 -34 -30 -29 -28 -26 -66 -65 -60 -64 -59 -58 0
-41 -43 -44 -45 -23 -31 -58 -59 -60 -26 -34 -64 -65 -28 -36 -66 -29 -37 -30 -38 -22 0
-41 -34 -26 -60 -59 -58 -31 -23 -45 -44 -43 -22 -38 -37 -36 -30 -29 -28 -66 -65 -64 0
-58 -59 -60 -26 -34 -41 -64 -65 -28 -36 -43 -66 -29 -37 -44 -30 -38 -45 -22 -23 -31 0
-58 -43 -36 -28 -65 -64 -41 -34 -26 -60 -59 -31 -23 -45 -44 -22 -38 -37 -30 -29 -66 0
-64 -65 -28 -36 -43 -58 -66 -29 -37 -44 -59 -30 -38 -45 -60 -22 -23 -26 -31 -34 -41 0
-64 -59 -44 -37 -29 -66 -58 -43 -36 -28 -65 -41 -34 -26 -60 -31 -23 -45 -22 -38 -30 0
-66 -29 -37 -44 -59 -64 -30 -38 -45 -60 -65 -22 -23 -26 -28 -31 -34 -36 -41 -43 -58 0
-30 -38 -45 -60 -65 -66 -22 -23 -26 -28 -29 -31 -34 -36 -37 -41 -43 -44 -58 -59 -64 0
-66 -65 -60 -45 -38 -30 -64 -59 -44 -37 -29 -58 -43 -36 -28 -41 -34 -26 -31 -23 -22 0
-22 -23 -27 -28 -29 -30 -31 -35 -36 -37 -38 -42 -43 -44 -45 -61 -62 -63 -64 -65 -66 0
-30 -29 -28 -27 -23 -22 -66 -65 -63 -45 -38 -64 -62 -44 -37 -61 -43 -36 -42 -35 -31 0
-22 -38 -37 -36 -35 -31 -30 -29 -28 -27 -23 -66 -65 -63 -45 -64 -62 -44 -61 -43 -42 0
-31 -35 -36 -37 -38 -22 -42 -43 -44 -45 -23 -61 -62 -63 -27 -64 -65 -28 -66 -29 -30 0
-31 -23 -45 -44 -43 -42 -22 -38 -37 -36 -35 -30 -29 -28 -27 -66 -65 -63 -64 -62 -61 0
-42 -43 -44 -45 -23 -31 -61 -62 -63 -27 -35 -64 -65 -28 -36 -66 -29 -37 -30 -38 -22 0
-42 -35 -27 -63 -62 -61 -31 -23 -45 -44 -43 -22 -38 -37 -36 -30 -29 -28 -66 -65 -64 0
-61 -62 -63 -27 -35 -42 -64 -65 -28 -36 -43 -66 -29 -37 -44 -30 -38 -45 -22 -23 -31 0
-61 -43 -36 -28 -65 -64 -42 -35 -27 -63 -62 -31 -23 -45 -44 -22 -38 -37 -30 -29 -66 0
-64 -65 -28 -36 -43 -61 -66 -29 -37 -44 -62 -30 -38 -45 -63 -22 -23 -27 -31 -35 -42 0
-64 -62 -44 -37 -29 -66 -61 -43 -36 -28 -65 -42 -35 -27 -63 -31 -23 -45 -22 -38 -30 0
-66 -29 -37 -44 -62 -64 -30 -38 -45 -63 -65 -22 -23 -27 -28 -31 -35 -36 -42 -43 -61 0
-30 -38 -45 -63 -65 -66 -22 -23 -27 -28 -29 -31 -35 -36 -37 -42 -43 -44 -61 -62 -64 0
-66 -65 -63 -45 -38 -30 -64 -62 -44 -37 -29 -61 -43 -36 -28 -42 -35 -27 -31 -23 -22 0
-22 -24 -25 -26 -27 -28 -32 -33 -34 -35 -36 -46 -47 -48 -49 -52 -53 -54 -57 -58 -61 0
-28 -27 -26 -25 -24 -22 -61 -58 -54 -49 -36 -57 -53 -48 -35 -52 -47 -34 -46 -33 -32 0
-22 -36 -35 -34 -33 -32 -28 -27 -26 -25 -24 -61 -58 -54 -49 -57 -53 -48 -52 -47 -46 0
-32 -33 -34 -35 -36 -22 -46 -47 -48 -49 -24 -52 -53 -54 -25 -57 -58 -26 -61 -27 -28 0
-32 -24 -49 -48 -47 -46 -22 -36 -35 -34 -33 -28 -27 -26 -25 -61 -58 -54 -57 -53 -52 0
-46 -47 -48 -49 -24 -32 -52 -53 -54 -25 -33 -57 -58 -26 -34 -61 -27 -35 -28 -36 -22 0
-46 -33 -25 -54 -53 -52 -32 -24 -49 -48 -47 -22 -36 -35 -34 -28 -27 -26 -61 -58 -57 0
-52 -53 -54 -25 -33 -46 -57 -58 -26 -34 -47 -61 -27 -35 -48 -28 -36 -49 -22 -24 -32 0
-52 -47 -34 -26 -58 -57 -46 -33 -25 -54 -53 -32 -24 -49 -48 -22 -36 -35 -28 -27 -61 0
-57 -58 -26 -34 -47 -52 -61 -27 -35 -48 -53 -28 -36 -49 -54 -22 -24 -25 -32 -33 -46 0
-57 -53 -48 -35 -27 -61 -52 -47 -34 -26 -58 -46 -33 -25 -54 -32 -24 -49 -22 -36 -28 0
-61 -27 -35 -48 -53 -57 -28 -36 -49 -54 -58 -22 -24 -25 -26 -32 -33 -34 -46 -47 -52 0
-28 -36 -49 -54 -58 -61 -22 -24 -25 -26 -27 -32 -33 -34 -35 -46 -47 -48 -52 -53 -57 0
-61 -58 -54 -49 -36 -28 -57 -53 -48 -35 -27 -52 -47 -34 -26 -46 -33 -25 -32 -24 -22 0
-22 -24 -25 -26 -27 -29 -32 -33 -34 -35 -37 -46 -47 -48 -50 -52 -53 -55 -57 -59 -62 0
-29 -27 -26 -25 -24 -22 -62 -59 -55 -50 -37 -57 -53 -48 -35 -52 -47 -34 -46 -33 -32 0
-22 -37 -35 -34 -33 -32 -29 -27 -26 -25 -24 -62 -59 -55 -50 -57 -53 -48 -52 -47 -46 0
-32 -33 -34 -35 -37 -22 -46 -47 -48 -50 -24 -52 -53 -55 -25 -57 -59 -26 -62 -27 -29 0
-32 -24 -50 -48 -47 -46 -22 -37 -35 -34 -33 -29 -27 -26 -25 -62 -59 -55 -57 -53 -52 0
-46 -47 -48 -50 -24 -32 -52 -53 -55 -25 -33 -57 -59 -26 -34 -62 -27 -35 -29 -37 -22 0
-46 -33 -25 -55 -53 -52 -32 -24 -50 -48 -47 -22 -37 -35 -34 -29 -27 -26 -62 -59 -57 0
-52 -53 -55 -25 -33 -46 -57 -59 -26 -34 -47 -62 -27 -35 -48 -29 -37 -50 -22 -24 -32 0
-52 -47 -34 -26 -59 -57 -46 -33 -25 -55 -53 -32 -24 -50 -48 -22 -37 -35 -29 -27 -62 0
-57 -59 -26 -34 -47 -52 -62 -27 -35 -48 -53 -29 -37 -50 -55 -22 -24 -25 -32 -33 -46 0
-57 -53 -48 -35 -27 -62 -52 -47 -34 -26 -59 -46 -33 -25 -55 -32 -24 -50 -22 -37 -29 0
-62 -27 -35 -48 -53 -57 -29 -37 -50 -55 -59 -22 -24 -25 -26 -32 -33 -34 -46 -47 -52 0
-29 -37 -50 -55 -59 -62 -22 -24 -25 -26 -27 -32 -33 -34 -35 -46 -47 -48 -52 -53 -57 0
-62 -59 -55 -50 -37 -29 -57 -53 -48 -35 -27 -52 -47 -34 -26 -46 -33 -25 -32 -24 -22 0
-22 -24 -25 -26 -27 -30 -32 -33 -34 -35 -38 -46 -47 -48 -51 -52 -53 -56 -57 -60 -63 0
-30 -27 -26 -25 -24 -22 -63 -60 -56 -51 -38 -57 -53 -48 -35 -52 -47 -34 -46 -33 -32 0
-22 -38 -35 -34 -33 -32 -30 -27 -26 -25 -24 -63 -60 -56 -51 -57 -53 -48 -52 -47 -46 0
-32 -33 -34 -35 -38 -22 -46 -47 -48 -51 -24 -52 -53 -56 -25 -57 -60 -26 -63 -27 -30 0
-32 -24 -51 -48 -47 -46 -22 -38 -35 -34 -33 -30 -27 -26 -25 -63 -60 -56 -57 -53 -52 0
-46 -47 -48 -51 -24 -32 -52 -53 -56 -25 -33 -57 -60 -26 -34 -63 -27 -35 -30 -38 -22 0
-46 -33 -25 -56 -53 -52 -32 -24 -51 -48 -47 -22 -38 -35 -34 -30 -27 -26 -63 -60 -57 0
-52 -53 -56 -25 -33 -46 -57 -60 -26 -34 -47 -63 -27 -35 -48 -30 -38 -51 -22 -24 -32 0
-52 -47 -34 -26 -60 -57 -46 -33 -25 -56 -53 -32 -24 -51 -48 -22 -38 -35 -30 -27 -63 0
-57 -60 -26 -34 -47 -52 -63 -27 -35 -48 -53 -30 -38 -51 -56 -22 -24 -25 -32 -33 -46 0
-57 -53 -48 -35 -27 -63 -52 -47 -34 -26 -60 -46 -33 -25 -56 -32 -24 -51 -22 -38 -30 0
-63 -27 -35 -48 -53 -57 -30 -38 -51 -56 -60 -22 -24 -25 -26 -32 -33 -34 -46 -47 -52 0
-30 -38 -51 -56 -60 -63 -22 -24 -25 -26 -27 -32 -33 -34 -35 -46 -47 -48 -52 -53 -57 0
-63 -60 -56 -51 -38 -30 -57 -53 -48 -35 -27 -52 -47 -34 -26 -46 -33 -25 -32 -24 -22 0
-22 -24 -25 -26 -28 -29 -32 -33 -34 -36 -37 -46 -47 -49 -50 -52 -54 -55 -58 -59 -64 0
-29 -28 -26 -25 -24 -22 -64 -59 -55 -50 -37 -58 -54 -49 -36 -52 -47 -34 -46 -33 -32 0
-22 -37 -36 -34 -33 -32 -29 -28 -26 -25 -24 -64 -59 -55 -50 -58 -54 -49 -52 -47 -46 0
-32 -33 -34 -36 -37 -22 -46 -47 -49 -50 -24 -52 -54 -55 -25 -58 -59 -26 -64 -28 -29 0
-32 -24 -50 -49 -47 -46 -22 -37 -36 -34 -33 -29 -28 -26 -25 -64 -59 -55 -58 -54 -52 0
-46 -47 -49 -50 -24 -32 -52 -54 -55 -25 -33 -58 -59 -26 -34 -64 -28 -36 -29 -37 -22 0
-46 -33 -25 -55 -54 -52 -32 -24 -50 -49 -47 -22 -37 -36 -34 -29 -28 -26 -64 -59 -58 0
-52 -54 -55 -25 -33 -46 -58 -59 -26 -34 -47 -64 -28 -36 -49 -29 -37 -50 -22 -24 -32 0
-52 -47 -34 -26 -59 -58 -46 -33 -25 -55 -54 -32 -24 -50 -49 -22 -37 -36 -29 -28 -64 0
-58 -59 -26 -34 -47 -52 -64 -28 -36 -49 -54 -29 -37 -50 -55 -22 -24 -25 -32 -33 -46 0
-58 -54 -49 -36 -28 -64 -52 -47 -34 -26 -59 -46 -33 -25 -55 -32 -24 -50 -22 -37 -29 0
-64 -28 -36 -49 -54 -58 -29 -37 -50 -55 -59 -22 -24 -25 -26 -32 -33 -34 -46 -47 -52 0
-29 -37 -50 -55 -59 -64 -22 -24 -25 -26 -28 -32 -33 -34 -36 -46 -47 -49 -52 -54 -58 0
-64 -59 -55 -50 -37 -29 -58 -54 -49 -36 -28 -52 -47 -34 -26 -46 -33 -25 -32 -24 -22 0
-22 -24 -25 -26 -28 -30 -32 -33 -34 -36 -38 -46 -47 -49 -51 -52 -54 -56 -58 -60 -65 0
-30 -28 -26 -25 -24 -22 -65 -60 -56 -51 -38 -58 -54 -49 -36 -52 -47 -34 -46 -33 -32 0
-22 -38 -36 -34 -33 -32 -30 -28 -26 -25 -24 -65 -60 -56 -51 -58 -54 -49 -52 -47 -46 0
-32 -33 -34 -36 -38 -22 -46 -47 -49 -51 -24 -52 -54 -56 -25 -58 -60 -26 -65 -28 -30 0
-32 -24 -51 -49 -47 -46 -22 -38 -36 -34 -33 -30 -28 -26 -25 -65 -60 -56 -58 -54 -52 0
-46 -47 -49 -51 -24 -32 -52 -54 -56 -25 -33 -58 -60 -26 -34 -65 -28 -36 -30 -38 -22 0
-46 -33 -25 -56 -54 -52 -32 -24 -51 -49 -47 -22 -38 -36 -34 -30 -28 -26 -65 -60 -58 0
-52 -54 -56 -25 -33 -46 -58 -60 -26 -34 -47 -65 -28 -36 -49 -30 -38 -51 -22 -24 -32 0
-52 -47 -34 -26 -60 -58 -46 -33 -25 -56 -54 -32 -24 -51 -49 -22 -38 -36 -30 -28 -65 0
-58 -60 -26 -34 -47 -52 -65 -28 -36 -49 -54 -30 -38 -51 -56 -22 -24 -25 -32 -33 -46 0
-58 -54 -49 -36 -28 -65 -52 -47 -34 -26 -60 -46 -33 -25 -56 -32 -24 -51 -22 -38 -30 0
-65 -28 -36 -49 -54 -58 -30 -38 -51 -56 -60 -22 -24 -25 -26 -32 -33 -34 -46 -47 -52 0
-30 -38 -51 -56 -60 -65 -22 -24 -25 -26 -28 -32 -33 -34 -36 -46 -47 -49 -52 -54 -58 0
-65 -60 -56 -51 -38 -30 -58 -54 -49 -36 -28 -52 -47 -34 -26 -46 -33 -25 -32 -24 -22 0
-22 -24 -25 -26 -29 -30 -32 -33 -34 -37 -38 -46 -47 -50 -51 -52 -55 -56 -59 -60 -66 0
-30 -29 -26 -25 -24 -22 -66 -60 -56 -51 -38 -59 -55 -50 -37 -52 -47 -34 -46 -33 -32 0
-22 -38 -37 -34 -33 -32 -30 -29 -26 -25 -24 -66 -60 -56 -51 -59 -55 -50 -52 -47 -46 0
-32 -33 -34 -37 -38 -22 -46 -47 -50 -51 -24 -52 -55 -56 -25 -59 -60 -26 -66 -29 -30 0
-32 -24 -51 -50 -47 -46 -22 -38 -37 -34 -33 -30 -29 -26 -25 -66 -60 -56 -59 -55 -52 0
-46 -47 -50 -51 -24 -32 -52 -55 -56 -25 -33 -59 -60 -26 -34 -66 -29 -37 -30 -38 -22 0
-46 -33 -25 -56 -55 -52 -32 -24 -51 -50 -47 -22 -38 -37 -34 -30 -29 -26 -66 -60 -59 0
-52 -55 -56 -25 -33 -46 -59 -60 -26 -34 -47 -66 -29 -37 -50 -30 -38 -51 -22 -24 -32 0
-52 -47 -34 -26 -60 -59 -46 -33 -25 -56 -55 -32 -24 -51 -50 -22 -38 -37 -30 -29 -66 0
-59 -60 -26 -34 -47 -52 -66 -29 -37 -50 -55 -30 -38 -51 -56 -22 -24 -25 -32 -33 -46 0
-59 -55 -50 -37 -29 -66 -52 -47 -34 -26 -60 -46 -33 -25 -56 -32 -24 -51 -22 -38 -30 0
-66 -29 -37 -50 -55 -59 -30 -38 -51 -56 -60 -22 -24 -25 -26 -32 -33 -34 -46 -47 -52 0
-30 -38 -51 -56 -60 -66 -22 -24 -25 -26 -29 -32 -33 -34 -37 -46 -47 -50 -52 -55 -59 0
-66 -60 -56 -51 -38 -30 -59 -55 -50 -37 -29 -52 -47 -34 -26 -46 -33 -25 -32 -24 -22 0
-22 -24 -25 -27 -28 -29 -32 -33 -35 -36 -37 -46 -48 -49 -50 -53 -54 -55 -61 -62 -64 0
-29 -28 -27 -25 -24 -22 -64 -62 -55 -50 -37 -61 -54 -49 -36 -53 -48 -35 -46 -33 -32 0
-22 -37 -36 -35 -33 -32 -29 -28 -27 -25 -24 -64 -62 -55 -50 -61 -54 -49 -53 -48 -46 0
-32 -33 -35 -36 -37 -22 -46 -48 -49 -50 -24 -53 -54 -55 -25 -61 -62 -27 -64 -28 -29 0
-32 -24 -50 -49 -48 -46 -22 -37 -36 -35 -33 -29 -28 -27 -25 -64 -62 -55 -61 -54 -53 0
-46 -48 -49 -50 -24 -32 -53 -54 -55 -25 -33 -61 -62 -27 -35 -64 -28 -36 -29 -37 -22 0
-46 -33 -25 -55 -54 -53 -32 -24 -50 -49 -48 -22 -37 -36 -35 -29 -28 -27 -64 -62 -61 0
-53 -54 -55 -25 -33 -46 -61 -62 -27 -35 -48 -64 -28 -36 -49 -29 -37 -50 -22 -24 -32 0
-53 -48 -35 -27 -62 -61 -46 -33 -25 -55 -54 -32 -24 -50 -49 -22 -37 -36 -29 -28 -64 0
-61 -62 -27 -35 -48 -53 -64 -28 -36 -49 -54 -29 -37 -50 -55 -22 -24 -25 -32 -33 -46 0
-61 -54 -49 -36 -28 -64 -53 -48 -35 -27 -62 -46 -33 -25 -55 -32 -24 -50 -22 -37 -29 0
-64 -28 -36 -49 -54 -61 -29 -37 -50 -55 -62 -22 -24 -25 -27 -32 -33 -35 -46 -48 -53 0
-29 -37 -50 -55 -62 -64 -22 -24 -25 -27 -28 -32 -33 -35 -36 -46 -48 -49 -53 -54 -61 0
-64 -62 -55 -50 -37 -29 -61 -54 -49 -36 -28 -53 -48 -35 -27 -46 -33 -25 -32 -24 -22 0
-22 -24 -25 -27 -28 -30 -32 -33 -35 -36 -38 -46 -48 -49 -51 -53 -54 -56 -61 -63 -65 0
-30 -28 -27 -25 -24 -22 -65 -63 -56 -51 -38 -61 -54 -49 -36 -53 -48 -35 -46 -33 -32 0
-22 -38 -36 -35 -33 -32 -30 -28 -27 -25 -24 -65 -63 -56 -51 -61 -54 -49 -53 -48 -46 0
-32 -33 -35 -36 -38 -22 -46 -48 -49 -51 -24 -53 -54 -56 -25 -61 -63 -27 -65 -28 -30 0
-32 -24 -51 -49 -48 -46 -22 -38 -36 -35 -33 -30 -28 -27 -25 -65 -63 -56 -61 -54 -53 0
-46 -48 -49 -51 -24 -32 -53 -54 -56 -25 -33 -61 -63 -27 -35 -65 -28 -36 -30 -38 -22 0
-46 -33 -25 -56 -54 -53 -32 -24 -51 -49 -48 -22 -38 -36 -35 -30 -28 -27 -65 -63 -61 0
-53 -54 -56 -25 -33 -46 -61 -63 -27 -35 -48 -65 -28 -36 -49 -30 -38 -51 -22 -24 -32 0
-53 -48 -35 -27 -63 -61 -46 -33 -25 -56 -54 -32 -24 -51 -49 -22 -38 -36 -30 -28 -65 0
-61 -63 -27 -35 -48 -53 -65 -28 -36 -49 -54 -30 -38 -51 -56 -22 -24 -25 -32 -33 -46 0
-61 -54 -49 -36 -28 -65 -53 -48 -35 -27 -63 -46 -33 -25 -56 -32 -24 -51 -22 -38 -30 0
-65 -28 -36 -49 -54 -61 -30 -38 -51 -56 -63 -22 -24 -25 -27 -32 -33 -35 -46 -48 -53 0
-30 -38 -51 -56 -63 -65 -22 -24 -25 -27 -28 -32 -33 -35 -36 -46 -48 -49 -53 -54 -61 0
-65 -63 -56 -51 -38 -30 -61 -54 -49 -36 -28 -53 -48 -35 -27 -46 -33 -25 -32 -24 -22 0
-22 -24 -25 -27 -29 -30 -32 -33 -35 -37 -38 -46 -48 -50 -51 -53 -55 -56 -62 -63 -66 0
-30 -29 -27 -25 -24 -22 -66 -63 -56 -51 -38 -62 -55 -50 -37 -53 -48 -35 -46 -33 -32 0
-22 -38 -37 -35 -33 -32 -30 -29 -27 -25 -24 -66 -63 -56 -51 -62 -55 -50 -53 -48 -46 0
-32 -33 -35 -37 -38 -22 -46 -48 -50 -51 -24 -53 -55 -56 -25 -62 -63 -27 -66 -29 -30 0
-32 -24 -51 -50 -48 -46 -22 -38 -37 -35 -33 -30 -29 -27 -25 -66 -63 -56 -62 -55 -53 0
-46 -48 -50 -51 -24 -32 -53 -55 -56 -25 -33 -62 -63 -27 -35 -66 -29 -37 -30 -38 -22 0
-46 -33 -25 -56 -55 -53 -32 -24 -51 -50 -48 -22 -38 -37 -35 -30 -29 -27 -66 -63 -62 0
-53 -55 -56 -25 -33 -46 -62 -63 -27 -35 -48 -66 -29 -37 -50 -30 -38 -51 -22 -24 -32 0
-53 -48 -35 -27 -63 -62 -46 -33 -25 -56 -55 -32 -24 -51 -50 -22 -38 -37 -30 -29 -66 0
-62 -63 -27 -35 -48 -53 -66 -29 -37 -50 -55 -30 -38 -51 -56 -22 -24 -25 -32 -33 -46 0
-62 -55 -50 -37 -29 -66 -53 -48 -35 -27 -63 -46 -33 -25 -56 -32 -24 -51 -22 -38 -30 0
-66 -29 -37 -50 -55 -62 -30 -38 -51 -56 -63 -22 -24 -25 -27 -32 -33 -35 -46 -48 -53 0
-30 -38 -51 -56 -63 -66 -22 -24 -25 -27 -29 -32 -33 -35 -37 -46 -48 -50 -53 -55 -62 0
-66 -63 -56 -51 -38 -30 -62 -55 -50 -37 -29 -53 -48 -35 -27 -46 -33 -25 -32 -24 -22 0
-22 -24 -25 -28 -29 -30 -32 -33 -36 -37 -38 -46 -49 -50 -51 -54 -55 -56 -64 -65 -66 0
-30 -29 -28 -25 -24 -22 -66 -65 -56 -51 -38 -64 -55 -50 -37 -54 -49 -36 -46 -33 -32 0
-22 -38 -37 -36 -33 -32 -30 -29 -28 -25 -24 -66 -65 -56 -51 -64 -55 -50 -54 -49 -46 0
-32 -33 -36 -37 -38 -22 -46 -49 -50 -51 -24 -54 -55 -56 -25 -64 -65 -28 -66 -29 -30 0
-32 -24 -51 -50 -49 -46 -22 -38 -37 -36 -33 -30 -29 -28 -25 -66 -65 -56 -64 -55 -54 0
-46 -49 -50 -51 -24 -32 -54 -55 -56 -25 -33 -64 -65 -28 -36 -66 -29 -37 -30 -38 -22 0
-46 -33 -25 -56 -55 -54 -32 -24 -51 -50 -49 -22 -38 -37 -36 -30 -29 -28 -66 -65 -64 0
-54 -55 -56 -25 -33 -46 -64 -65 -28 -36 -49 -66 -29 -37 -50 -30 -38 -51 -22 -24 -32 0
-54 -49 -36 -28 -65 -64 -46 -33 -25 -56 -55 -32 -24 -51 -50 -22 -38 -37 -30 -29 -66 0
-64 -65 -28 -36 -49 -54 -66 -29 -37 -50 -55 -30 -38 -51 -56 -22 -24 -25 -32 -33 -46 0
-64 -55 -50 -37 -29 -66 -54 -49 -36 -28 -65 -46 -33 -25 -56 -32 -24 -51 -22 -38 -30 0
-66 -29 -37 -50 -55 -64 -30 -38 -51 -56 -65 -22 -24 -25 -28 -32 -33 -36 -46 -49 -54 0
-30 -38 -51 -56 -65 -66 -22 -24 -25 -28 -29 -32 -33 -36 -37 -46 -49 -50 -54 -55 -64 0
-66 -65 -56 -51 -38 -30 -64 -55 -50 -37 -29 -54 -49 -36 -28 -46 -33 -25 -32 -24 -22 0
-22 -24 -26 -27 -28 -29 -32 -34 -35 -36 -37 -47 -48 -49 -50 -57 -58 -59 -61 -62 -64 0
-29 -28 -27 -26 -24 -22 -64 -62 -59 -50 -37 -61 -58 -49 -36 -57 -48 -35 -47 -34 -32 0
-22 -37 -36 -35 -34 -32 -29 -28 -27 -26 -24 -64 -62 -59 -50 -61 -58 -49 -57 -48 -47 0
-32 -34 -35 -36 -37 -22 -47 -48 -49 -50 -24 -57 -58 -59 -26 -61 -62 -27 -64 -28 -29 0
-32 -24 -50 -49 -48 -47 -22 -37 -36 -35 -34 -29 -28 -27 -26 -64 -62 -59 -61 -58 -57 0
-47 -48 -49 -50 -24 -32 -57 -58 -59 -26 -34 -61 -62 -27 -35 -64 -28 -36 -29 -37 -22 0
-47 -34 -26 -59 -58 -57 -32 -24 -50 -49 -48 -22 -37 -36 -35 -29 -28 -27 -64 -62 -61 0
-57 -58 -59 -26 -34 -47 -61 -62 -27 -35 -48 -64 -28 -36 -49 -29 -37 -50 -22 -24 -32 0
-57 -48 -35 -27 -62 -61 -47 -34 -26 -59 -58 -32 -24 -50 -49 -22 -37 -36 -29 -28 -64 0
-61 -62 -27 -35 -48 -57 -64 -28 -36 -49 -58 -29 -37 -50 -59 -22 -24 -26 -32 -34 -47 0
-61 -58 -49 -36 -28 -64 -57 -48 -35 -27 -62 -47 -34 -26 -59 -32 -24 -50 -22 -37 -29 0
-64 -28 -36 -49 -58 -61 -29 -37 -50 -59 -62 -22 -24 -26 -27 -32 -34 -35 -47 -48 -57 0
-29 -37 -50 -59 -62 -64 -22 -24 -26 -27 -28 -32 -34 -35 -36 -47 -48 -49 -57 -58 -61 0
-64 -62 -59 -50 -37 -29 -61 -58 -49 -36 -28 -57 -48 -35 -27 -47 -34 -26 -32 -24 -22 0
-22 -24 -26 -27 -28 -30 -32 -34 -35 -36 -38 -47 -48 -49 -51 -57 -58 -60 -61 -63 -65 0
-30 -28 -27 -26 -24 -22 -65 -63 -60 -51 -38 -61 -58 -49 -36 -57 -48 -35 -47 -34 -32 0
-22 -38 -36 -35 -34 -32 -30 -28 -27 -26 -24 -65 -63 -60 -51 -61 -58 -49 -57 -48 -47 0
-32 -34 -35 -36 -38 -22 -47 -48 -49 -51 -24 -57 -58 -60 -26 -61 -63 -27 -65 -28 -30 0
-32 -24 -51 -49 -48 -47 -22 -38 -36 -35 -34 -30 -28 -27 -26 -65 -63 -60 -61 -58 -57 0
-47 -48 -49 -51 -24 -32 -57 -58 -60 -26 -34 -61 -63 -27 -35 -65 -28 -36 -30 -38 -22 0
-47 -34 -26 -60 -58 -57 -32 -24 -51 -49 -48 -22 -38 -36 -35 -30 -28 -27 -65 -63 -61 0
-57 -58 -60 -26 -34 -47 -61 -63 -27 -35 -48 -65 -28 -36 -49 -30 -38 -51 -22 -24 -32 0
-57 -48 -35 -27 -63 -61 -47 -34 -26 -60 -58 -32 -24 -51 -49 -22 -38 -36 -30 -28 -65 0
-61 -63 -27 -35 -48 -57 -65 -28 -36 -49 -58 -30 -38 -51 -60 -22 -24 -26 -32 -34 -47 0
-61 -58 -49 -36 -28 -65 -57 -48 -35 -27 -63 -47 -34 -26 -60 -32 -24 -51 -22 -38 -30 0
-65 -28 -36 -49 -58 -61 -30 -38 -51 -60 -63 -22 -24 -26 -27 -32 -34 -35 -47 -48 -57 0
-30 -38 -51 -60 -63 -65 -22 -24 -26 -27 -28 -32 -34 -35 -36 -47 -48 -49 -57 -58 -61 0
-65 -63 -60 -51 -38 -30 -61 -58 -49 -36 -28 -57 -48 -35 -27 -47 -34 -26 -32 -24 -22 0
-22 -24 -26 -27 -29 -30 -32 -34 -35 -37 -38 -47 -48 -50 -51 -57 -59 -60 -62 -63 -66 0
-30 -29 -27 -26 -24 -22 -66 -63 -60 -51 -38 -62 -59 -50 -37 -57 -48 -35 -47 -34 -32 0
-22 -38 -37 -35 -34 -32 -30 -29 -27 -26 -24 -66 -63 -60 -51 -62 -59 -50 -57 -48 -47 0
-32 -34 -35 -37 -38 -22 -47 -48 -50 -51 -24 -57 -59 -60 -26 -62 -63 -27 -66 -29 -30 0
-32 -24 -51 -50 -48 -47 -22 -38 -37 -35 -34 -30 -29 -27 -26 -66 -63 -60 -62 -59 -57 0
-47 -48 -50 -51 -24 -32 -57 -59 -60 -26 -34 -62 -63 -27 -35 -66 -29 -37 -30 -38 -22 0
-47 -34 -26 -60 -59 -57 -32 -24 -51 -50 -48 -22 -38 -37 -35 -30 -29 -27 -66 -63 -62 0
-57 -59 -60 -26 -34 -47 -62 -63 -27 -35 -48 -66 -29 -37 -50 -30 -38 -51 -22 -24 -32 0
-57 -48 -35 -27 -63 -62 -47 -34 -26 -60 -59 -32 -24 -51 -50 -22 -38 -37 -30 -29 -66 0
-62 -63 -27 -35 -48 -57 -66 -29 -37 -50 -59 -30 -38 -51 -60 -22 -24 -26 -32 -34 -47 0
-62 -59 -50 -37 -29 -66 -57 -48 -35 -27 -63 -47 -34 -26 -60 -32 -24 -51 -22 -38 -30 0
-66 -29 -37 -50 -59 -62 -30 -38 -51 -60 -63 -22 -24 -26 -27 -32 -34 -35 -47 -48 -57 0
-30 -38 -51 -60 -63 -66 -22 -24 -26 -27 -29 -32 -34 -35 -37 -47 -48 -50 -57 -59 -62 0
-66 -63 -60 -51 -38 -30 -62 -59 -50 -37 -29 -57 -48 -35 -27 -47 -34 -26 -32 -24 -22 0
-22 -24 -26 -28 -29 -30 -32 -34 -36 -37 -38 -47 -49 -50 -51 -58 -59 -60 -64 -65 -66 0
-30 -29 -28 -26 -24 -22 -66 -65 -60 -51 -38 -64 -59 -50 -37 -58 -49 -36 -47 -34 -32 0
-22 -38 -37 -36 -34 -32 -30 -29 -28 -26 -24 -66 -65 -60 -51 -64 -59 -50 -58 -49 -47 0
-32 -34 -36 -37 -38 -22 -47 -49 -50 -51 -24 -58 -59 -60 -26 -64 -65 -28 -66 -29 -30 0
-32 -24 -51 -50 -49 -47 -22 -38 -37 -36 -34 -30 -29 -28 -26 -66 -65 -60 -64 -59 -58 0
-47 -49 -50 -51 -24 -32 -58 -59 -60 -26 -34 -64 -65 -28 -36 -66 -29 -37 -30 -38 -22 0
-47 -34 -26 -60 -59 -58 -32 -24 -51 -50 -49 -22 -38 -37 -36 -30 -29 -28 -66 -65 -64 0
-58 -59 -60 -26 -34 -47 -64 -65 -28 -36 -49 -66 -29 -37 -50 -30 -38 -51 -22 -24 -32 0
-58 -49 -36 -28 -65 -64 -47 -34 -26 -60 -59 -32 -24 -51 -50 -22 -38 -37 -30 -29 -66 0
-64 -65 -28 -36 -49 -58 -66 -29 -37 -50 -59 -30 -38 -51 -60 -22 -24 -26 -32 -34 -47 0
-64 -59 -50 -37 -29 -66 -58 -49 -36 -28 -65 -47 -34 -26 -60 -32 -24 -51 -22 -38 -30 0
-66 -29 -37 -50 -59 -64 -30 -38 -51 -60 -65 -22 -24 -26 -28 -32 -34 -36 -47 -49 -58 0
-30 -38 -51 -60 -65 -66 -22 -24 -26 -28 -29 -32 -34 -36 -37 -47 -49 -50 -58 -59 -64 0
-66 -65 -60 -51 -38 -30 -64 -59 -50 -37 -29 -58 -49 -36 -28 -47 -34 -26 -32 -24 -22 0
-22 -24 -27 -28 -29 -30 -32 -35 -36 -37 -38 -48 -49 -50 -51 -61 -62 -63 -64 -65 -66 0
-30 -29 -28 -27 -24 -22 -66 -65 -63 -51 -38 -64 -62 -50 -37 -61 -49 -36 -48 -35 -32 0
-22 -38 -37 -36 -35 -32 -30 -29 -28 -27 -24 -66 -65 -63 -51 -64 -62 -50 -61 -49 -48 0
-32 -35 -36 -37 -38 -22 -48 -49 -50 -51 -24 -61 -62 -63 -27 -64 -65 -28 -66 -29 -30 0
-32 -24 -51 -50 -49 -48 -22 -38 -37 -36 -35 -30 -29 -28 -27 -66 -65 -63 -64 -62 -61 0
-48 -49 -50 -51 -24 -32 -61 -62 -63 -27 -35 -64 -65 -28 -36 -66 -29 -37 -30 -38 -22 0
-48 -35 -27 -63 -62 -61 -32 -24 -51 -50 -49 -22 -38 -37 -36 -30 -29 -28 -66 -65 -64 0
-61 -62 -63 -27 -35 -48 -64 -65 -28 -36 -49 -66 -29 -37 -50 -30 -38 -51 -22 -24 -32 0
-61 -49 -36 -28 -65 -64 -48 -35 -27 -63 -62 -32 -24 -51 -50 -22 -38 -37 -30 -29 -66 0
-64 -65 -28 -36 -49 -61 -66 -29 -37 -50 -62 -30 -38 -51 -63 -22 -24 -27 -32 -35 -48 0
-64 -62 -50 -37 -29 -66 -61 -49 -36 -28 -65 -48 -35 -27 -63 -32 -24 -51 -22 -38 -30 0
-66 -29 -37 -50 -62 -64 -30 -38 -51 -63 -65 -22 -24 -27 -28 -32 -35 -36 -48 -49 -61 0
-30 -38 -51 -63 -65 -66 -22 -24 -27 -28 -29 -32 -35 -36 -37 -48 -49 -50 -61 -62 -64 0
-66 -65 -63 -51 -38 -30 -64 -62 -50 -37 -29 -61 -49 -36 -28 -48 -35 -27 -32 -24 -22 0
-22 -25 -26 -27 -28 -29 -33 -34 -35 -36 -37 -52 -53 -54 -55 -57 -58 -59 -61 -62 -64 0
-29 -28 -27 -26 -25 -22 -64 -62 -59 -55 -37 -61 -58 -54 -36 -57 -53 -35 -52 -34 -33 0
-22 -37 -36 -35 -34 -33 -29 -28 -27 -26 -25 -64 -62 -59 -55 -61 -58 -54 -57 -53 -52 0
-33 -34 -35 -36 -37 -22 -52 -53 -54 -55 -25 -57 -58 -59 -26 -61 -62 -27 -64 -28 -29 0
-33 -25 -55 -54 -53 -52 -22 -37 -36 -35 -34 -29 -28 -27 -26 -64 -62 -59 -61 -58 -57 0
-52 -53 -54 -55 -25 -33 -57 -58 -59 -26 -34 -61 -62 -27 -35 -64 -28 -36 -29 -37 -22 0
-52 -34 -26 -59 -58 -57 -33 -25 -55 -54 -53 -22 -37 -36 -35 -29 -28 -27 -64 -62 -61 0
-57 -58 -59 -26 -34 -52 -61 -62 -27 -35 -53 -64 -28 -36 -54 -29 -37 -55 -22 -25 -33 0
-57 -53 -35 -27 -62 -61 -52 -34 -26 -59 -58 -33 -25 -55 -54 -22 -37 -36 -29 -28 -64 0
-61 -62 -27 -35 -53 -57 -64 -28 -36 -54 -58 -29 -37 -55 -59 -22 -25 -26 -33 -34 -52 0
-61 -58 -54 -36 -28 -64 -57 -53 -35 -27 -62 -52 -34 -26 -59 -33 -25 -55 -22 -37 -29 0
-64 -28 -36 -54 -58 -61 -29 -37 -55 -59 -62 -22 -25 -26 -27 -33 -34 -35 -52 -53 -57 0
-29 -37 -55 -59 -62 -64 -22 -25 -26 -27 -28 -33 -34 -35 -36 -52 -53 -54 -57 -58 -61 0
-64 -62 -59 -55 -37 -29 -61 -58 -54 -36 -28 -57 -53 -35 -27 -52 -34 -26 -33 -25 -22 0
-22 -25 -26 -27 -28 -30 -33 -34 -35 -36 -38 -52 -53 -54 -56 -57 -58 -60 -61 -63 -65 0
-30 -28 -27 -26 -25 -22 -65 -63 -60 -56 -38 -61 -58 -54 -36 -57 -53 -35 -52 -34 -33 0
-22 -38 -36 -35 -34 -33 -30 -28 -27 -26 -25 -65 -63 -60 -56 -61 -58 -54 -57 -53 -52 0
-33 -34 -35 -36 -38 -22 -52 -53 -54 -56 -25 -57 -58 -60 -26 -61 -63 -27 -65 -28 -30 0
-33 -25 -56 -54 -53 -52 -22 -38 -36 -35 -34 -30 -28 -27 -26 -65 -63 -60 -61 -58 -57 0
-52 -53 -54 -56 -25 -33 -57 -58 -60 -26 -34 -61 -63 -27 -35 -65 -28 -36 -30 -38 -22 0
-52 -34 -26 -60 -58 -57 -33 -25 -56 -54 -53 -22 -38 -36 -35 -30 -28 -27 -65 -63 -61 0
-57 -58 -60 -26 -34 -52 -61 -63 -27 -35 -53 -65 -28 -36 -54 -30 -38 -56 -22 -25 -33 0
-57 -53 -35 -27 -63 -61 -52 -34 -26 -60 -58 -33 -25 -56 -54 -22 -38 -36 -30 -28 -65 0
-61 -63 -27 -35 -53 -57 -65 -28 -36 -54 -58 -30 -38 -56 -60 -22 -25 -26 -33 -34 -52 0
-61 -58 -54 -36 -28 -65 -57 -53 -35 -27 -63 -52 -34 -26 -60 -33 -25 -56 -22 -38 -30 0
-65 -28 -36 -54 -58 -61 -30 -38 -56 -60 -63 -22 -25 -26 -27 -33 -34 -35 -52 -53 -57 0
-30 -38 -56 -60 -63 -65 -22 -25 -26 -27 -28 -33 -34 -35 -36 -52 -53 -54 -57 -58 -61 0
-65 -63 -60 -56 -38 -30 -61 -58 -54 -36 -28 -57 -53 -35 -27 -52 -34 -26 -33 -25 -22 0
-22 -25 -26 -27 -29 -30 -33 -34 -35 -37 -38 -52 -53 -55 -56 -57 -59 -60 -62 -63 -66 0
-30 -29 -27 -26 -25 -22 -66 -63 -60 -56 -38 -62 -59 -55 -37 -57 -53 -35 -52 -34 -33 0
-22 -38 -37 -35 -34 -33 -30 -29 -27 -26 -25 -66 -63 -60 -56 -62 -59 -55 -57 -53 -52 0
-33 -34 -35 -37 -38 -22 -52 -53 -55 -56 -25 -57 -59 -60 -26 -62 -63 -27 -66 -29 -30 0
-33 -25 -56 -55 -53 -52 -22 -38 -37 -35 -34 -30 -29 -27 -26 -66 -63 -60 -62 -59 -57 0
-52 -53 -55 -56 -25 -33 -57 -59 -60 -26 -34 -62 -63 -27 -35 -66 -29 -37 -30 -38 -22 0
-52 -34 -26 -60 -59 -57 -33 -25 -56 -55 -53 -22 -38 -37 -35 -30 -29 -27 -66 -63 -62 0
-57 -59 -60 -26 -34 -52 -62 -63 -27 -35 -53 -66 -29 -37 -55 -30 -38 -56 -22 -25 -33 0
-57 -53 -35 -27 -63 -62 -52 -34 -26 -60 -59 -33 -25 -56 -55 -22 -38 -37 -30 -29 -66 0
-62 -63 -27 -35 -53 -57 -66 -29 -37 -55 -59 -30 -38 -56 -60 -22 -25 -26 -33 -34 -52 0
-62 -59 -55 -37 -29 -66 -57 -53 -35 -27 -63 -52 -34 -26 -60 -33 -25 -56 -22 -38 -30 0
-66 -29 -37 -55 -59 -62 -30 -38 -56 -60 -63 -22 -25 -26 -27 -33 -34 -35 -52 -53 -57 0
-30 -38 -56 -60 -63 -66 -22 -25 -26 -27 -29 -33 -34 -35 -37 -52 -53 -55 -57 -59 -62 0
-66 -63 -60 -56 -38 -30 -62 -59 -55 -37 -29 -57 -53 -35 -27 -52 -34 -26 -33 -25 -22 0
-22 -25 -26 -28 -29 -30 -33 -34 -36 -37 -38 -52 -54 -55 -56 -58 -59 -60 -64 -65 -66 0
-30 -29 -28 -26 -25 -22 -66 -65 -60 -56 -38 -64 -59 -55 -37 -58 -54 -36 -52 -34 -33 0
-22 -38 -37 -36 -34 -33 -30 -29 -28 -26 -25 -66 -65 -60 -56 -64 -59 -55 -58 -54 -52 0
-33 -34 -36 -37 -38 -22 -52 -54 -55 -56 -25 -58 -59 -60 -26 -64 -65 -28 -66 -29 -30 0
-33 -25 -56 -55 -54 -52 -22 -38 -37 -36 -34 -30 -29 -28 -26 -66 -65 -60 -64 -59 -58 0
-52 -54 -55 -56 -25 -33 -58 -59 -60 -26 -34 -64 -65 -28 -36 -66 -29 -37 -30 -38 -22 0
-52 -34 -26 -60 -59 -58 -33 -25 -56 -55 -54 -22 -38 -37 -36 -30 -29 -28 -66 -65 -64 0
-58 -59 -60 -26 -34 -52 -64 -65 -28 -36 -54 -66 -29 -37 -55 -30 -38 -56 -22 -25 -33 0
-58 -54 -36 -28 -65 -64 -52 -34 -26 -60 -59 -33 -25 -56 -55 -22 -38 -37 -30 -29 -66 0
-64 -65 -28 -36 -54 -58 -66 -29 -37 -55 -59 -30 -38 -56 -60 -22 -25 -26 -33 -34 -52 0
-64 -59 -55 -37 -29 -66 -58 -54 -36 -28 -65 -52 -34 -26 -60 -33 -25 -56 -22 -38 -30 0
-66 -29 -37 -55 -59 -64 -30 -38 -56 -60 -65 -22 -25 -26 -28 -33 -34 -36 -52 -54 -58 0
-30 -38 -56 -60 -65 -66 -22 -25 -26 -28 -29 -33 -34 -36 -37 -52 -54 -55 -58 -59 -64 0
-66 -65 -60 -56 -38 -30 -64 -59 -55 -37 -29 -58 -54 -36 -28 -52 -34 -26 -33 -25 -22 0
-22 -25 -27 -28 -29 -30 -33 -35 -36 -37 -38 -53 -54 -55 -56 -61 -62 -63 -64 -65 -66 0
-30 -29 -28 -27 -25 -22 -66 -65 -63 -56 -38 -64 -62 -55 -37 -61 -54 -36 -53 -35 -33 0
-22 -38 -37 -36 -35 -33 -30 -29 -28 -27 -25 -66 -65 -63 -56 -64 -62 -55 -61 -54 -53 0
-33 -35 -36 -37 -38 -22 -53 -54 -55 -56 -25 -61 -62 -63 -27 -64 -65 -28 -66 -29 -30 0
-33 -25 -56 -55 -54 -53 -22 -38 -37 -36 -35 -30 -29 -28 -27 -66 -65 -63 -64 -62 -61 0
-53 -54 -55 -56 -25 -33 -61 -62 -63 -27 -35 -64 -65 -28 -36 -66 -29 -37 -30 -38 -22 0
-53 -35 -27 -63 -62 -61 -33 -25 -56 -55 -54 -22 -38 -37 -36 -30 -29 -28 -66 -65 -64 0
-61 -62 -63 -27 -35 -53 -64 -65 -28 -36 -54 -66 -29 -37 -55 -30 -38 -56 -22 -25 -33 0
-61 -54 -36 -28 -65 -64 -53 -35 -27 -63 -62 -33 -25 -56 -55 -22 -38 -37 -30 -29 -66 0
-64 -65 -28 -36 -54 -61 -66 -29 -37 -55 -62 -30 -38 -56 -63 -22 -25 -27 -33 -35 -53 0
-64 -62 -55 -37 -29 -66 -61 -54 -36 -28 -65 -53 -35 -27 -63 -33 -25 -56 -22 -38 -30 0
-66 -29 -37 -55 -62 -64 -30 -38 -56 -63 -65 -22 -25 -27 -28 -33 -35 -36 -53 -54 -61 0
-30 -38 -56 -63 -65 -66 -22 -25 -27 -28 -29 -33 -35 -36 -37 -53 -54 -55 -61 -62 -64 0
-66 -65 -63 -56 -38 -30 -64 -62 -55 -37 -29 -61 -54 -36 -28 -53 -35 -27 -33 -25 -22 0
-22 -26 -27 -28 -29 -30 -34 -35 -36 -37 -38 -57 -58 -59 -60 -61 -62 -63 -64 -65 -66 0
-30 -29 -28 -27 -26 -22 -66 -65 -63 -60 -38 -64 -62 -59 -37 -61 -58 -36 -57 -35 -34 0
-22 -38 -37 -36 -35 -34 -30 -29 -28 -27 -26 -66 -65 -63 -60 -64 -62 -59 -61 -58 -57 0
-34 -35 -36 -37 -38 -22 -57 -58 -59 -60 -26 -61 -62 -63 -27 -64 -65 -28 -66 -29 -30 0
-34 -26 -60 -59 -58 -57 -22 -38 -37 -36 -35 -30 -29 -28 -27 -66 -65 -63 -64 -62 -61 0
-57 -58 -59 -60 -26 -34 -61 -62 -63 -27 -35 -64 -65 -28 -36 -66 -29 -37 -30 -38 -22 0
-57 -35 -27 -63 -62 -61 -34 -26 -60 -59 -58 -22 -38 -37 -36 -30 -29 -28 -66 -65 -64 0
-61 -62 -63 -27 -35 -57 -64 -65 -28 -36 -58 -66 -29 -37 -59 -30 -38 -60 -22 -26 -34 0
-61 -58 -36 -28 -65 -64 -57 -35 -27 -63 -62 -34 -26 -60 -59 -22 -38 -37 -30 -29 -66 0
-64 -65 -28 -36 -58 -61 -66 -29 -37 -59 -62 -30 -38 -60 -63 -22 -26 -27 -34 -35 -57 0
-64 -62 -59 -37 -29 -66 -61 -58 -36 -28 -65 -57 -35 -27 -63 -34 -26 -60 -22 -38 -30 0
-66 -29 -37 -59 -62 -64 -30 -38 -60 -63 -65 -22 -26 -27 -28 -34 -35 -36 -57 -58 -61 0
-30 -38 -60 -63 -65 -66 -22 -26 -27 -28 -29 -34 -35 -36 -37 -57 -58 -59 -61 -62 -64 0
-66 -65 -63 -60 -38 -30 -64 -62 -59 -37 -29 -61 -58 -36 -28 -57 -35 -27 -34 -26 -22 0
-23 -24 -25 -26 -27 -28 -39 -40 -41 -42 -43 -46 -47 -48 -49 -52 -53 -54 -57 -58 -61 0
-28 -27 -26 -25 -24 -23 -61 -58 -54 -49 -43 -57 -53 -48 -42 -52 -47 -41 -46 -40 -39 0
-23 -43 -42 -41 -40 -39 -28 -27 -26 -25 -24 -61 -58 -54 -49 -57 -53 -48 -52 -47 -46 0
-39 -40 -41 -42 -43 -23 -46 -47 -48 -49 -24 -52 -53 -54 -25 -57 -58 -26 -61 -27 -28 0
-39 -24 -49 -48 -47 -46 -23 -43 -42 -41 -40 -28 -27 -26 -25 -61 -58 -54 -57 -53 -52 0
-46 -47 -48 -49 -24 -39 -52 -53 -54 -25 -40 -57 -58 -26 -41 -61 -27 -42 -28 -43 -23 0
-46 -40 -25 -54 -53 -52 -39 -24 -49 -48 -47 -23 -43 -42 -41 -28 -27 -26 -61 -58 -57 0
-52 -53 -54 -25 -40 -46 -57 -58 -26 -41 -47 -61 -27 -42 -48 -28 -43 -49 -23 -24 -39 0
-52 -47 -41 -26 -58 -57 -46 -40 -25 -54 -53 -39 -24 -49 -48 -23 -43 -42 -28 -27 -61 0
-57 -58 -26 -41 -47 -52 -61 -27 -42 -48 -53 -28 -43 -49 -54 -23 -24 -25 -39 -40 -46 0
-57 -53 -48 -42 -27 -61 -52 -47 -41 -26 -58 -46 -40 -25 -54 -39 -24 -49 -23 -43 -28 0
-61 -27 -42 -48 -53 -57 -28 -43 -49 -54 -58 -23 -24 -25 -26 -39 -40 -41 -46 -47 -52 0
-28 -43 -49 -54 -58 -61 -23 -24 -25 -26 -27 -39 -40 -41 -42 -46 -47 -48 -52 -53 -57 0
-61 -58 -54 -49 -43 -28 -57 -53 -48 -42 -27 -52 -47 -41 -26 -46 -40 -25 -39 -24 -23 0
-23 -24 -25 -26 -27 -29 -39 -40 -41 -42 -44 -46 -47 -48 -50 -52 -53 -55 -57 -59 -62 0
-29 -27 -26 -25 -24 -23 -62 -59 -55 -50 -44 -57 -53 -48 -42 -52 -47 -41 -46 -40 -39 0
-23 -44 -42 -41 -40 -39 -29 -27 -26 -25 -24 -62 -59 -55 -50 -57 -53 -48 -52 -47 -46 0
-39 -40 -41 -42 -44 -23 -46 -47 -48 -50 -24 -52 -53 -55 -25 -57 -59 -26 -62 -27 -29 0
-39 -24 -50 -48 -47 -46 -23 -44 -42 -41 -40 -29 -27 -26 -25 -62 -59 -55 -57 -53 -52 0
-46 -47 -48 -50 -24 -39 -52 -53 -55 -25 -40 -57 -59 -26 -41 -62 -27 -42 -29 -44 -23 0
-46 -40 -25 -55 -53 -52 -39 -24 -50 -48 -47 -23 -44 -42 -41 -29 -27 -26 -62 -59 -57 0
-52 -53 -55 -25 -40 -46 -57 -59 -26 -41 -47 -62 -27 -42 -48 -29 -44 -50 -23 -24 -39 0
-52 -47 -41 -26 -59 -57 -46 -40 -25 -55 -53 -39 -24 -50 -48 -23 -44 -42 -29 -27 -62 0
-57 -59 -26 -41 -47 -52 -62 -27 -42 -48 -53 -29 -44 -50 -55 -23 -24 -25 -39 -40 -46 0
-57 -53 -48 -42 -27 -62 -52 -47 -41 -26 -59 -46 -40 -25 -55 -39 -24 -50 -23 -44 -29 0
-62 -27 -42 -48 -53 -57 -29 -44 -50 -55 -59 -23 -24 -25 -26 -39 -40 -41 -46 -47 -52 0
-29 -44 -50 -55 -59 -62 -23 -24 -25 -26 -27 -39 -40 -41 -42 -46 -47 -48 -52 -53 -57 0
-62 -59 -55 -50 -44 -29 -57 -53 -48 -42 -27 -52 -47 -41 -26 -46 -40 -25 -39 -24 -23 0
-23 -24 -25 -26 -27 -30 -39 -40 -41 -42 -45 -46 -47 -48 -51 -52 -53 -56 -57 -60 -63 0
-30 -27 -26 -25 -24 -23 -63 -60 -56 -51 -45 -57 -53 -48 -42 -52 -47 -41 -46 -40 -39 0
-23 -45 -42 -41 -40 -39 -30 -27 -26 -25 -24 -63 -60 -56 -51 -57 -53 -48 -52 -47 -46 0
-39 -40 -41 -42 -45 -23 -46 -47 -48 -51 -24 -52 -53 -56 -25 -57 -60 -26 -63 -27 -30 0
-39 -24 -51 -48 -47 -46 -23 -45 -42 -41 -40 -30 -27 -26 -25 -63 -60 -56 -57 -53 -52 0
-46 -47 -48 -51 -24 -39 -52 -53 -56 -25 -40 -57 -60 -26 -41 -63 -27 -42 -30 -45 -23 0
-46 -40 -25 -56 -53 -52 -39 -24 -51 -48 -47 -23 -45 -42 -41 -30 -27 -26 -63 -60 -57 0
-52 -53 -56 -25 -40 -46 -57 -60 -26 -41 -47 -63 -27 -42 -48 -30 -45 -51 -23 -24 -39 0
-52 -47 -41 -26 -60 -57 -46 -40 -25 -56 -53 -39 -24 -51 -48 -23 -45 -42 -30 -27 -63 0
-57 -60 -26 -41 -47 -52 -63 -27 -42 -48 -53 -30 -45 -51 -56 -23 -24 -25 -39 -40 -46 0
-57 -53 -48 -42 -27 -63 -52 -47 -41 -26 -60 -46 -40 -25 -56 -39 -24 -51 -23 -45 -30 0
-63 -27 -42 -48 -53 -57 -30 -45 -51 -56 -60 -23 -24 -25 -26 -39 -40 -41 -46 -47 -52 0
-30 -45 -51 -56 -60 -63 -23 -24 -25 -26 -27 -39 -40 -41 -42 -46 -47 -48 -52 -53 -57 0
-63 -60 -56 -51 -45 -30 -57 -53 -48 -42 -27 -52 -47 -41 -26 -46 -40 -25 -39 -24 -23 0
-23 -24 -25 -26 -28 -29 -39 -40 -41 -43 -44 -46 -47 -49 -50 -52 -54 -55 -58 -59 -64 0
-29 -28 -26 -25 -24 -23 -64 -59 -55 -50 -44 -58 -54 -49 -43 -52 -47 -41 -46 -40 -39 0
-23 -44 -43 -41 -40 -39 -29 -28 -26 -25 -24 -64 -59 -55 -50 -58 -54 -49 -52 -47 -46 0
-39 -40 -41 -43 -44 -23 -46 -47 -49 -50 -24 -52 -54 -55 -25 -58 -59 -26 -64 -28 -29 0
-39 -24 -50 -49 -47 -46 -23 -44 -43 -41 -40 -29 -28 -26 -25 -64 -59 -55 -58 -54 -52 0
-46 -47 -49 -50 -24 -39 -52 -54 -55 -25 -40 -58 -59 -26 -41 -64 -28 -43 -29 -44 -23 0
-46 -40 -25 -55 -54 -52 -39 -24 -50 -49 -47 -23 -44 -43 -41 -29 -28 -26 -64 -59 -58 0
-52 -54 -55 -25 -40 -46 -58 -59 -26 -41 -47 -64 -28 -43 -49 -29 -44 -50 -23 -24 -39 0
-52 -47 -41 -26 -59 -58 -46 -40 -25 -55 -54 -39 -24 -50 -49 -23 -44 -43 -29 -28 -64 0
-58 -59 -26 -41 -47 -52 -64 -28 -43 -49 -54 -29 -44 -50 -55 -23 -24 -25 -39 -40 -46 0
-58 -54 -49 -43 -28 -64 -52 -47 -41 -26 -59 -46 -40 -25 -55 -39 -24 -50 -23 -44 -29 0
-64 -28 -43 -49 -54 -58 -29 -44 -50 -55 -59 -23 -24 -25 -26 -39 -40 -41 -46 -47 -52 0
-29 -44 -50 -55 -59 -64 -23 -24 -25 -26 -28 -39 -40 -41 -43 -46 -47 -49 -52 -54 -58 0
-64 -59 -55 -50 -44 -29 -58 -54 -49 -43 -28 -52 -47 -41 -26 -46 -40 -25 -39 -24 -23 0
-23 -24 -25 -26 -28 -30 -39 -40 -41 -43 -45 -46 -47 -49 -51 -52 -54 -56 -58 -60 -65 0
-30 -28 -26 -25 -24 -23 -65 -60 -56 -51 -45 -58 -54 -49 -43 -52 -47 -41 -46 -40 -39 0
-23 -45 -43 -41 -40 -39 -30 -28 -26 -25 -24 -65 -60 -56 -51 -58 -54 -49 -52 -47 -46 0
-39 -40 -41 -43 -45 -23 -46 -47 -49 -51 -24 -52 -54 -56 -25 -58 -60 -26 -65 -28 -30 0
-39 -24 -51 -49 -47 -46 -23 -45 -43 -41 -40 -30 -28 -26 -25 -65 -60 -56 -58 -54 -52 0
-46 -47 -49 -51 -24 -39 -52 -54 -56 -25 -40 -58 -60 -26 -41 -65 -28 -43 -30 -45 -23 0
-46 -40 -25 -56 -54 -52 -39 -24 -51 -49 -47 -23 -45 -43 -41 -30 -28 -26 -65 -60 -58 0
-52 -54 -56 -25 -40 -46 -58 -60 -26 -41 -47 -65 -28 -43 -49 -30 -45 -51 -23 -24 -39 0
-52 -47 -41 -26 -60 -58 -46 -40 -25 -56 -54 -39 -24 -51 -49 -23 -45 -43 -30 -28 -65 0
-58 -60 -26 -41 -47 -52 -65 -28 -43 -49 -54 -30 -45 -51 -56 -23 -24 -25 -39 -40 -46 0
-58 -54 -49 -43 -28 -65 -52 -47 -41 -26 -60 -46 -40 -25 -56 -39 -24 -51 -23 -45 -30 0
-65 -28 -43 -49 -54 -58 -30 -45 -51 -56 -60 -23 -24 -25 -26 -39 -40 -41 -46 -47 -52 0
-30 -45 -51 -56 -60 -65 -23 -24 -25 -26 -28 -39 -40 -41 -43 -46 -47 -49 -52 -54 -58 0
-65 -60 -56 -51 -45 -30 -58 -54 -49 -43 -28 -52 -47 -41 -26 -46 -40 -25 -39 -24 -23 0
-23 -24 -25 -26 -29 -30 -39 -40 -41 -44 -45 -46 -47 -50 -51 -52 -55 -56 -59 -60 -66 0
-30 -29 -26 -25 -24 -23 -66 -60 -56 -51 -45 -59 -55 -50 -44 -52 -47 -41 -46 -40 -39 0
-23 -45 -44 -41 -40 -39 -30 -29 -26 -25 -24 -66 -60 -56 -51 -59 -55 -50 -52 -47 -46 0
-39 -40 -41 -44 -45 -23 -46 -47 -50 -51 -24 -52 -55 -56 -25 -59 -60 -26 -66 -29 -30 0
-39 -24 -51 -50 -47 -46 -23 -45 -44 -41 -40 -30 -29 -26 -25 -66 -60 -56 -59 -55 -52 0
-46 -47 -50 -51 -24 -39 -52 -55 -56 -25 -40 -59 -60 -26 -41 -66 -29 -44 -30 -45 -23 0
-46 -40 -25 -56 -55 -52 -39 -24 -51 -50 -47 -23 -45 -44 -41 -30 -29 -26 -66 -60 -59 0
-52 -55 -56 -25 -40 -46 -59 -60 -26 -41 -47 -66 -29 -44 -50 -30 -45 -51 -23 -24 -39 0
-52 -47 -41 -26 -60 -59 -46 -40 -25 -56 -55 -39 -24 -51 -50 -23 -45 -44 -30 -29 -66 0
-59 -60 -26 -41 -47 -52 -66 -29 -44 -50 -55 -30 -45 -51 -56 -23 -24 -25 -39 -40 -46 0
-59 -55 -50 -44 -29 -66 -52 -47 -41 -26 -60 -46 -40 -25 -56 -39 -24 -51 -23 -45 -30 0
-66 -29 -44 -50 -55 -59 -30 -45 -51 -56 -60 -23 -24 -25 -26 -39 -40 -41 -46 -47 -52 0
-30 -45 -51 -56 -60 -66 -23 -24 -25 -26 -29 -39 -40 -41 -44 -46 -47 -50 -52 -55 -59 0
-66 -60 -56 -51 -45 -30 -59 -55 -50 -44 -29 -52 -47 -41 -26 -46 -40 -25 -39 -24 -23 0
-23 -24 -25 -27 -28 -29 -39 -40 -42 -43 -44 -46 -48 -49 -50 -53 -54 -55 -61 -62 -64 0
-29 -28 -27 -25 -24 -23 -64 -62 -55 -50 -44 -61 -54 -49 -43 -53 -48 -42 -46 -40 -39 0
-23 -44 -43 -42 -40 -39 -29 -28 -27 -25 -24 -64 -62 -55 -50 -61 -54 -49 -53 -48 -46 0
-39 -40 -42 -43 -44 -23 -46 -48 -49 -50 -24 -53 -54 -55 -25 -61 -62 -27 -64 -28 -29 0
-39 -24 -50 -49 -48 -46 -23 -44 -43 -42 -40 -29 -28 -27 -25 -64 -62 -55 -61 -54 -53 0
-46 -48 -49 -50 -24 -39 -53 -54 -55 -25 -40 -61 -62 -27 -42 -64 -28 -43 -29 -44 -23 0
-46 -40 -25 -55 -54 -53 -39 -24 -50 -49 -48 -23 -44 -43 -42 -29 -28 -27 -64 -62 -61 0
-53 -54 -55 -25 -40 -46 -61 -62 -27 -42 -48 -64 -28 -43 -49 -29 -44 -50 -23 -24 -39 0
-53 -48 -42 -27 -62 -61 -46 -40 -25 -55 -54 -39 -24 -50 -49 -23 -44 -43 -29 -28 -64 0
-61 -62 -27 -42 -48 -53 -64 -28 -43 -49 -54 -29 -44 -50 -55 -23 -24 -25 -39 -40 -46 0
-61 -54 -49 -43 -28 -64 -53 -48 -42 -27 -62 -46 -40 -25 -55 -39 -24 -50 -23 -44 -29 0
-64 -28 -43 -49 -54 -61 -29 -44 -50 -55 -62 -23 -24 -25 -27 -39 -40 -42 -46 -48 -53 0
-29 -44 -50 -55 -62 -64 -23 -24 -25 -27 -28 -39 -40 -42 -43 -46 -48 -49 -53 -54 -61 0
-64 -62 -55 -50 -44 -29 -61 -54 -49 -43 -28 -53 -48 -42 -27 -46 -40 -25 -39 -24 -23 0
-23 -24 -25 -27 -28 -30 -39 -40 -42 -43 -45 -46 -48 -49 -51 -53 -54 -56 -61 -63 -65 0
-30 -28 -27 -25 -24 -23 -65 -63 -56 -51 -45 -61 -54 -49 -43 -53 -48 -42 -46 -40 -39 0
-23 -45 -43 -42 -40 -39 -30 -28 -27 -25 -24 -65 -63 -56 -51 -61 -54 -49 -53 -48 -46 0
-39 -40 -42 -43 -45 -23 -46 -48 -49 -51 -24 -53 -54 -56 -25 -61 -63 -27 -65 -28 -30 0
-39 -24 -51 -49 -48 -46 -23 -45 -43 -42 -40 -30 -28 -27 -25 -65 -63 -56 -61 -54 -53 0
-46 -48 -49 -51 -24 -39 -53 -54 -56 -25 -40 -61 -63 -27 -42 -65 -28 -43 -30 -45 -23 0
-46 -40 -25 -56 -54 -53 -39 -24 -51 -49 -48 -23 -45 -43 -42 -30 -28 -27 -65 -63 -61 0
-53 -54 -56 -25 -40 -46 -61 -63 -27 -42 -48 -65 -28 -43 -49 -30 -45 -51 -23 -24 -39 0
-53 -48 -42 -27 -63 -61 -46 -40 -25 -56 -54 -39 -24 -51 -49 -23 -45 -43 -30 -28 -65 0
-61 -63 -27 -42 -48 -53 -65 -28 -43 -49 -54 -30 -45 -51 -56 -23 -24 -25 -39 -40 -46 0
-61 -54 -49 -43 -28 -65 -53 -48 -42 -27 -63 -46 -40 -25 -56 -39 -24 -51 -23 -45 -30 0
-65 -28 -43 -49 -54 -61 -30 -45 -51 -56 -63 -23 -24 -25 -27 -39 -40 -42 -46 -48 -53 0
-30 -45 -51 -56 -63 -65 -23 -24 -25 -27 -28 -39 -40 -42 -43 -46 -48 -49 -53 -54 -61 0
-65 -63 -56 -51 -45 -30 -61 -54 -49 -43 -28 -53 -48 -42 -27 -46 -40 -25 -39 -24 -23 0
-23 -24 -25 -27 -29 -30 -39 -40 -42 -44 -45 -46 -48 -50 -51 -53 -55 -56 -62 -63 -66 0
-30 -29 -27 -25 -24 -23 -66 -63 -56 -51 -45 -62 -55 -50 -44 -53 -48 -42 -46 -40 -39 0
-23 -45 -44 -42 -40 -39 -30 -29 -27 -25 -24 -66 -63 -56 -51 -62 -55 -50 -53 -48 -46 0
-39 -40 -42 -44 -45 -23 -46 -48 -50 -51 -24 -53 -55 -56 -25 -62 -63 -27 -66 -29 -30 0
-39 -24 -51 -50 -48 -46 -23 -45 -44 -42 -40 -30 -29 -27 -25 -66 -63 -56 -62 -55 -53 0
-46 -48 -50 -51 -24 -39 -53 -55 -56 -25 -40 -62 -63 -27 -42 -66 -29 -44 -30 -45 -23 0
-46 -40 -25 -56 -55 -53 -39 -24 -51 -50 -48 -23 -45 -44 -42 -30 -29 -27 -66 -63 -62 0
-53 -55 -56 -25 -40 -46 -62 -63 -27 -42 -48 -66 -29 -44 -50 -30 -45 -51 -23 -24 -39 0
-53 -48 -42 -27 -63 -62 -46 -40 -25 -56 -55 -39 -24 -51 -50 -23 -45 -44 -30 -29 -66 0
-62 -63 -27 -42 -48 -53 -66 -29 -44 -50 -55 -30 -45 -51 -56 -23 -24 -25 -39 -40 -46 0
-62 -55 -50 -44 -29 -66 -53 -48 -42 -27 -63 -46 -40 -25 -56 -39 -24 -51 -23 -45 -30 0
-66 -29 -44 -50 -55 -62 -30 -45 -51 -56 -63 -23 -24 -25 -27 -39 -40 -42 -46 -48 -53 0
-30 -45 -51 -56 -63 -66 -23 -24 -25 -27 -29 -39 -40 -42 -44 -46 -48 -50 -53 -55 -62 0
-66 -63 -56 -51 -45 -30 -62 -55 -50 -44 -29 -53 -48 -42 -27 -46 -40 -25 -39 -24 -23 0
-23 -24 -25 -28 -29 -30 -39 -40 -43 -44 -45 -46 -49 -50 -51 -54 -55 -56 -64 -65 -66 0
-30 -29 -28 -25 -24 -23 -66 -65 -56 -51 -45 -64 -55 -50 -44 -54 -49 -43 -46 -40 -39 0
-23 -45 -44 -43 -40 -39 -30 -29 -28 -25 -24 -66 -65 -56 -51 -64 -55 -50 -54 -49 -46 0
-39 -40 -43 -44 -45 -23 -46 -49 -50 -51 -24 -54 -55 -56 -25 -64 -65 -28 -66 -29 -30 0
-39 -24 -51 -50 -49 -46 -23 -45 -44 -43 -40 -30 -29 -28 -25 -66 -65 -56 -64 -55 -54 0
-46 -49 -50 -51 -24 -39 -54 -55 -56 -25 -40 -64 -65 -28 -43 -66 -29 -44 -30 -45 -23 0
-46 -40 -25 -56 -55 -54 -39 -24 -51 -50 -49 -23 -45 -44 -43 -30 -29 -28 -66 -65 -64 0
-54 -55 -56 -25 -40 -46 -64 -65 -28 -43 -49 -66 -29 -44 -50 -30 -45 -51 -23 -24 -39 0
-54 -49 -43 -28 -65 -64 -46 -40 -25 -56 -55 -39 -24 -51 -50 -23 -45 -44 -30 -29 -66 0
-64 -65 -28 -43 -49 -54 -66 -29 -44 -50 -55 -30 -45 -51 -56 -23 -24 -25 -39 -40 -46 0
-64 -55 -50 -44 -29 -66 -54 -49 -43 -28 -65 -46 -40 -25 -56 -39 -24 -51 -23 -45 -30 0
-66 -29 -44 -50 -55 -64 -30 -45 -51 -56 -65 -23 -24 -25 -28 -39 -40 -43 -46 -49 -54 0
-30 -45 -51 -56 -65 -66 -23 -24 -25 -28 -29 -39 -40 -43 -44 -46 -49 -50 -54 -55 -64 0
-66 -65 -56 -51 -45 -30 -64 -55 -50 -44 -29 -54 -49 -43 -28 -46 -40 -25 -39 -24 -23 0
-23 -24 -26 -27 -28 -29 -39 -41 -42 -43 -44 -47 -48 -49 -50 -57 -58 -59 -61 -62 -64 0
-29 -28 -27 -26 -24 -23 -64 -62 -59 -50 -44 -61 -58 -49 -43 -57 -48 -42 -47 -41 -39 0
-23 -44 -43 -42 -41 -39 -29 -28 -27 -26 -24 -64 -62 -59 -50 -61 -58 -49 -57 -48 -47 0
-39 -41 -42 -43 -44 -23 -47 -48 -49 -50 -24 -57 -58 -59 -26 -61 -62 -27 -64 -28 -29 0
-39 -24 -50 -49 -48 -47 -23 -44 -43 -42 -41 -29 -28 -27 -26 -64 -62 -59 -61 -58 -57 0
-47 -48 -49 -50 -24 -39 -57 -58 -59 -26 -41 -61 -62 -27 -42 -64 -28 -43 -29 -44 -23 0
-47 -41 -26 -59 -58 -57 -39 -24 -50 -49 -48 -23 -44 -43 -42 -29 -28 -27 -64 -62 -61 0
-57 -58 -59 -26 -41 -47 -61 -62 -27 -42 -48 -64 -28 -43 -49 -29 -44 -50 -23 -24 -39 0
-57 -48 -42 -27 -62 -61 -47 -41 -26 -59 -58 -39 -24 -50 -49 -23 -44 -43 -29 -28 -64 0
-61 -62 -27 -42 -48 -57 -64 -28 -43 -49 -58 -29 -44 -50 -59 -23 -24 -26 -39 -41 -47 0
-61 -58 -49 -43 -28 -64 -57 -48 -42 -27 -62 -47 -41 -26 -59 -39 -24 -50 -23 -44 -29 0
-64 -28 -43 -49 -58 -61 -29 -44 -50 -59 -62 -23 -24 -26 -27 -39 -41 -42 -47 -48 -57 0
-29 -44 -50 -59 -62 -64 -23 -24 -26 -27 -28 -39 -41 -42 -43 -47 -48 -49 -57 -58 -61 0
-64 -62 -59 -50 -44 -29 -61 -58 -49 -43 -28 -57 -48 -42 -27 -47 -41 -26 -39 -24 -23 0
-23 -24 -26 -27 -28 -30 -39 -41 -42 -43 -45 -47 -48 -49 -51 -57 -58 -60 -61 -63 -65 0
-30 -28 -27 -26 -24 -23 -65 -63 -60 -51 -45 -61 -58 -49 -43 -57 -48 -42 -47 -41 -39 0
-23 -45 -43 -42 -41 -39 -30 -28 -27 -26 -24 -65 -63 -60 -51 -61 -58 -49 -57 -48 -47 0
-39 -41 -42 -43 -45 -23 -47 -48 -49 -51 -24 -57 -58 -60 -26 -61 -63 -27 -65 -28 -30 0
-39 -24 -51 -49 -48 -47 -23 -45 -43 -42 -41 -30 -28 -27 -26 -65 -63 -60 -61 -58 -57 0
-47 -48 -49 -51 -24 -39 -57 -58 -60 -26 -41 -61 -63 -27 -42 -65 -28 -43 -30 -45 -23 0
-47 -41 -26 -60 -58 -57 -39 -24 -51 -49 -48 -23 -45 -43 -42 -30 -28 -27 -65 -63 -61 0
-57 -58 -60 -26 -41 -47 -61 -63 -27 -42 -48 -65 -28 -43 -49 -30 -45 -51 -23 -24 -39 0
-57 -48 -42 -27 -63 -61 -47 -41 -26 -60 -58 -39 -24 -51 -49 -23 -45 -43 -30 -28 -65 0
-61 -63 -27 -42 -48 -57 -65 -28 -43 -49 -58 -30 -45 -51 -60 -23 -24 -26 -39 -41 -47 0
-61 -58 -49 -43 -28 -65 -57 -48 -42 -27 -63 -47 -41 -26 -60 -39 -24 -51 -23 -45 -30 0
-65 -28 -43 -49 -58 -61 -30 -45 -51 -60 -63 -23 -24 -26 -27 -39 -41 -42 -47 -48 -57 0
-30 -45 -51 -60 -63 -65 -23 -24 -26 -27 -28 -39 -41 -42 -43 -47 -48 -49 -57 -58 -61 0
-65 -63 -60 -51 -45 -30 -61 -58 -49 -43 -28 -57 -48 -42 -27 -47 -41 -26 -39 -24 -23 0
-23 -24 -26 -27 -29 -30 -39 -41 -42 -44 -45 -47 -48 -50 -51 -57 -59 -60 -62 -63 -66 0
-30 -29 -27 -26 -24 -23 -66 -63 -60 -51 -45 -62 -59 -50 -44 -57 -48 -42 -47 -41 -39 0
-23 -45 -44 -42 -41 -39 -30 -29 -27 -26 -24 -66 -63 -60 -51 -62 -59 -50 -57 -48 -47 0
-39 -41 -42 -44 -45 -23 -47 -48 -50 -51 -24 -57 -59 -60 -26 -62 -63 -27 -66 -29 -30 0
-39 -24 -51 -50 -48 -47 -23 -45 -44 -42 -41 -30 -29 -27 -26 -66 -63 -60 -62 -59 -57 0
-47 -48 -50 -51 -24 -39 -57 -59 -60 -26 -41 -62 -63 -27 -42 -66 -29 -44 -30 -45 -23 0
-47 -41 -26 -60 -59 -57 -39 -24 -51 -50 -48 -23 -45 -44 -42 -30 -29 -27 -66 -63 -62 0
-57 -59 -60 -26 -41 -47 -62 -63 -27 -42 -48 -66 -29 -44 -50 -30 -45 -51 -23 -24 -39 0
-57 -48 -42 -27 -63 -62 -47 -41 -26 -60 -59 -39 -24 -51 -50 -23 -45 -44 -30 -29 -66 0
-62 -63 -27 -42 -48 -57 -66 -29 -44 -50 -59 -30 -45 -51 -60 -23 -24 -26 -39 -41 -47 0
-62 -59 -50 -44 -29 -66 -57 -48 -42 -27 -63 -47 -41 -26 -60 -39 -24 -51 -23 -45 -30 0
-66 -29 -44 -50 -59 -62 -30 -45 -51 -60 -63 -23 -24 -26 -27 -39 -41 -42 -47 -48 -57 0
-30 -45 -51 -60 -63 -66 -23 -24 -26 -27 -29 -39 -41 -42 -44 -47 -48 -50 -57 -59 -62 0
-66 -63 -60 -51 -45 -30 -62 -59 -50 -44 -29 -57 -48 -42 -27 -47 -41 -26 -39 -24 -23 0
-23 -24 -26 -28 -29 -30 -39 -41 -43 -44 -45 -47 -49 -50 -51 -58 -59 -60 -64 -65 -66 0
-30 -29 -28 -26 -24 -23 -66 -65 -60 -51 -45 -64 -59 -50 -44 -58 -49 -43 -47 -41 -39 0
-23 -45 -44 -43 -41 -39 -30 -29 -28 -26 -24 -66 -65 -60 -51 -64 -59 -50 -58 -49 -47 0
-39 -41 -43 -44 -45 -23 -47 -49 -50 -51 -24 -58 -59 -60 -26 -64 -65 -28 -66 -29 -30 0
-39 -24 -51 -50 -49 -47 -23 -45 -44 -43 -41 -30 -29 -28 -26 -66 -65 -60 -64 -59 -58 0
-47 -49 -50 -51 -24 -39 -58 -59 -60 -26 -41 -64 -65 -28 -43 -66 -29 -44 -30 -45 -23 0
-47 -41 -26 -60 -59 -58 -39 -24 -51 -50 -49 -23 -45 -44 -43 -30 -29 -28 -66 -65 -64 0
-58 -59 -60 -26 -41 -47 -64 -65 -28 -43 -49 -66 -29 -44 -50 -30 -45 -51 -23 -24 -39 0
-58 -49 -43 -28 -65 -64 -47 -41 -26 -60 -59 -39 -24 -51 -50 -23 -45 -44 -30 -29 -66 0
-64 -65 -28 -43 -49 -58 -66 -29 -44 -50 -59 -30 -45 -51 -60 -23 -24 -26 -39 -41 -47 0
-64 -59 -50 -44 -29 -66 -58 -49 -43 -28 -65 -47 -41 -26 -60 -39 -24 -51 -23 -45 -30 0
-66 -29 -44 -50 -59 -64 -30 -45 -51 -60 -65 -23 -24 -26 -28 -39 -41 -43 -47 -49 -58 0
-30 -45 -51 -60 -65 -66 -23 -24 -26 -28 -29 -39 -41 -43 -44 -47 -49 -50 -58 -59 -64 0
-66 -65 -60 -51 -45 -30 -64 -59 -50 -44 -29 -58 -49 -43 -28 -47 -41 -26 -39 -24 -23 0
-23 -24 -27 -28 -29 -30 -39 -42 -43 -44 -45 -48 -49 -50 -51 -61 -62 -63 -64 -65 -66 0
-30 -29 -28 -27 -24 -23 -66 -65 -63 -51 -45 -64 -62 -50 -44 -61 -49 -43 -48 -42 -39 0
-23 -45 -44 -43 -42 -39 -30 -29 -28 -27 -24 -66 -65 -63 -51 -64 -62 -50 -61 -49 -48 0
-39 -42 -43 -44 -45 -23 -48 -49 -50 -51 -24 -61 -62 -63 -27 -64 -65 -28 -66 -29 -30 0
-39 -24 -51 -50 -49 -48 -23 -45 -44 -43 -42 -30 -29 -28 -27 -66 -65 -63 -64 -62 -61 0
-48 -49 -50 -51 -24 -39 -61 -62 -63 -27 -42 -64 -65 -28 -43 -66 -29 -44 -30 -45 -23 0
-48 -42 -27 -63 -62 -61 -39 -24 -51 -50 -49 -23 -45 -44 -43 -30 -29 -28 -66 -65 -64 0
-61 -62 -63 -27 -42 -48 -64 -65 -28 -43 -49 -66 -29 -44 -50 -30 -45 -51 -23 -24 -39 0
-61 -49 -43 -28 -65 -64 -48 -42 -27 -63 -62 -39 -24 -51 -50 -23 -45 -44 -30 -29 -66 0
-64 -65 -28 -43 -49 -61 -66 -29 -44 -50 -62 -30 -45 -51 -63 -23 -24 -27 -39 -42 -48 0
-64 -62 -50 -44 -29 -66 -61 -49 -43 -28 -65 -48 -42 -27 -63 -39 -24 -51 -23 -45 -30 0
-66 -29 -44 -50 -62 -64 -30 -45 -51 -63 -65 -23 -24 -27 -28 -39 -42 -43 -48 -49 -61 0
-30 -45 -51 -63 -65 -66 -23 -24 -27 -28 -29 -39 -42 -43 -44 -48 -49 -50 -61 -62 -64 0
-66 -65 -63 -51 -45 -30 -64 -62 -50 -44 -29 -61 -49 -43 -28 -48 -42 -27 -39 -24 -23 0
-23 -25 -26 -27 -28 -29 -40 -41 -42 -43 -44 -52 -53 -54 -55 -57 -58 -59 -61 -62 -64 0
-29 -28 -27 -26 -25 -23 -64 -62 -59 -55 -44 -61 -58 -54 -43 -57 -53 -42 -52 -41 -40 0
-23 -44 -43 -42 -41 -40 -29 -28 -27 -26 -25 -64 -62 -59 -55 -61 -58 -54 -57 -53 -52 0
-40 -41 -42 -43 -44 -23 -52 -53 -54 -55 -25 -57 -58 -59 -26 -61 -62 -27 -64 -28 -29 0
-40 -25 -55 -54 -53 -52 -23 -44 -43 -42 -41 -29 -28 -27 -26 -64 -62 -59 -61 -58 -57 0
-52 -53 -54 -55 -25 -40 -57 -58 -59 -26 -41 -61 -62 -27 -42 -64 -28 -43 -29 -44 -23 0
-52 -41 -26 -59 -58 -57 -40 -25 -55 -54 -53 -23 -44 -43 -42 -29 -28 -27 -64 -62 -61 0
-57 -58 -59 -26 -41 -52 -61 -62 -27 -42 -53 -64 -28 -43 -54 -29 -44 -55 -23 -25 -40 0
-57 -53 -42 -27 -62 -61 -52 -41 -26 -59 -58 -40 -25 -55 -54 -23 -44 -43 -29 -28 -64 0
-61 -62 -27 -42 -53 -57 -64 -28 -43 -54 -58 -29 -44 -55 -59 -23 -25 -26 -40 -41 -52 0
-61 -58 -54 -43 -28 -64 -57 -53 -42 -27 -62 -52 -41 -26 -59 -40 -25 -55 -23 -44 -29 0
-64 -28 -43 -54 -58 -61 -29 -44 -55 -59 -62 -23 -25 -26 -27 -40 -41 -42 -52 -53 -57 0
-29 -44 -55 -59 -62 -64 -23 -25 -26 -27 -28 -40 -41 -42 -43 -52 -53 -54 -57 -58 -61 0
-64 -62 -59 -55 -44 -29 -61 -58 -54 -43 -28 -57 -53 -42 -27 -52 -41 -26 -40 -25 -23 0
-23 -25 -26 -27 -28 -30 -40 -41 -42 -43 -45 -52 -53 -54 -56 -57 -58 -60 -61 -63 -65 0
-30 -28 -27 -26 -25 -23 -65 -63 -60 -56 -45 -61 -58 -54 -43 -57 -53 -42 -52 -41 -40 0
-23 -45 -43 -42 -41 -40 -30 -28 -27 -26 -25 -65 -63 -60 -56 -61 -58 -54 -57 -53 -52 0
-40 -41 -42 -43 -45 -23 -52 -53 -54 -56 -25 -57 -58 -60 -26 -61 -63 -27 -65 -28 -30 0
-40 -25 -56 -54 -53 -52 -23 -45 -43 -42 -41 -30 -28 -27 -26 -65 -63 -60 -61 -58 -57 0
-52 -53 -54 -56 -25 -40 -57 -58 -60 -26 -41 -61 -63 -27 -42 -65 -28 -43 -30 -45 -23 0
-52 -41 -26 -60 -58 -57 -40 -25 -56 -54 -53 -23 -45 -43 -42 -30 -28 -27 -65 -63 -61 0
-57 -58 -60 -26 -41 -52 -61 -63 -27 -42 -53 -65 -28 -43 -54 -30 -45 -56 -23 -25 -40 0
-57 -53 -42 -27 -63 -61 -52 -41 -26 -60 -58 -40 -25 -56 -54 -23 -45 -43 -30 -28 -65 0
-61 -63 -27 -42 -53 -57 -65 -28 -43 -54 -58 -30 -45 -56 -60 -23 -25 -26 -40 -41 -52 0
-61 -58 -54 -43 -28 -65 -57 -53 -42 -27 -63 -52 -41 -26 -60 -40 -25 -56 -23 -45 -30 0
-65 -28 -43 -54 -58 -61 -30 -45 -56 -60 -63 -23 -25 -26 -27 -40 -41 -42 -52 -53 -57 0
-30 -45 -56 -60 -63 -65 -23 -25 -26 -27 -28 -40 -41 -42 -43 -52 -53 -54 -57 -58 -61 0
-65 -63 -60 -56 -45 -30 -61 -58 -54 -43 -28 -57 -53 -42 -27 -52 -41 -26 -40 -25 -23 0
-23 -25 -26 -27 -29 -30 -40 -41 -42 -44 -45 -52 -53 -55 -56 -57 -59 -60 -62 -63 -66 0
-30 -29 -27 -26 -25 -23 -66 -63 -60 -56 -45 -62 -59 -55 -44 -57 -53 -42 -52 -41 -40 0
-23 -45 -44 -42 -41 -40 -30 -29 -27 -26 -25 -66 -63 -60 -56 -62 -59 -55 -57 -53 -52 0
-40 -41 -42 -44 -45 -23 -52 -53 -55 -56 -25 -57 -59 -60 -26 -62 -63 -27 -66 -29 -30 0
-40 -25 -56 -55 -53 -52 -23 -45 -44 -42 -41 -30 -29 -27 -26 -66 -63 -60 -62 -59 -57 0
-52 -53 -55 -56 -25 -40 -57 -59 -60 -26 -41 -62 -63 -27 -42 -66 -29 -44 -30 -45 -23 0
-52 -41 -26 -60 -59 -57 -40 -25 -56 -55 -53 -23 -45 -44 -42 -30 -29 -27 -66 -63 -62 0
-57 -59 -60 -26 -41 -52 -62 -63 -27 -42 -53 -66 -29 -44 -55 -30 -45 -56 -23 -25 -40 0
-57 -53 -42 -27 -63 -62 -52 -41 -26 -60 -59 -40 -25 -56 -55 -23 -45 -44 -30 -29 -66 0
-62 -63 -27 -42 -53 -57 -66 -29 -44 -55 -59 -30 -45 -56 -60 -23 -25 -26 -40 -41 -52 0
-62 -59 -55 -44 -29 -66 -57 -53 -42 -27 -63 -52 -41 -26 -60 -40 -25 -56 -23 -45 -30 0
-66 -29 -44 -55 -59 -62 -30 -45 -56 -60 -63 -23 -25 -26 -27 -40 -41 -42 -52 -53 -57 0
-30 -45 -56 -60 -63 -66 -23 -25 -26 -27 -29 -40 -41 -42 -44 -52 -53 -55 -57 -59 -62 0
-66 -63 -60 -56 -45 -30 -62 -59 -55 -44 -29 -57 -53 -42 -27 -52 -41 -26 -40 -25 -23 0
-23 -25 -26 -28 -29 -30 -40 -41 -43 -44 -45 -52 -54 -55 -56 -58 -59 -60 -64 -65 -66 0
-30 -29 -28 -26 -25 -23 -66 -65 -60 -56 -45 -64 -59 -55 -44 -58 -54 -43 -52 -41 -40 0
-23 -45 -44 -43 -41 -40 -30 -29 -28 -26 -25 -66 -65 -60 -56 -64 -59 -55 -58 -54 -52 0
-40 -41 -43 -44 -45 -23 -52 -54 -55 -56 -25 -58 -59 -60 -26 -64 -65 -28 -66 -29 -30 0
-40 -25 -56 -55 -54 -52 -23 -45 -44 -43 -41 -30 -29 -28 -26 -66 -65 -60 -64 -59 -58 0
-52 -54 -55 -56 -25 -40 -58 -59 -60 -26 -41 -64 -65 -28 -43 -66 -29 -44 -30 -45 -23 0
-52 -41 -26 -60 -59 -58 -40 -25 -56 -55 -54 -23 -45 -44 -43 -30 -29 -28 -66 -65 -64 0
-58 -59 -60 -26 -41 -52 -64 -65 -28 -43 -54 -66 -29 -44 -55 -30 -45 -56 -23 -25 -40 0
-58 -54 -43 -28 -65 -64 -52 -41 -26 -60 -59 -40 -25 -56 -55 -23 -45 -44 -30 -29 -66 0
-64 -65 -28 -43 -54 -58 -66 -29 -44 -55 -59 -30 -45 -56 -60 -23 -25 -26 -40 -41 -52 0
-64 -59 -55 -44 -29 -66 -58 -54 -43 -28 -65 -52 -41 -26 -60 -40 -25 -56 -23 -45 -30 0
-66 -29 -44 -55 -59 -64 -30 -45 -56 -60 -65 -23 -25 -26 -28 -40 -41 -43 -52 -54 -58 0
-30 -45 -56 -60 -65 -66 -23 -25 -26 -28 -29 -40 -41 -43 -44 -52 -54 -55 -58 -59 -64 0
-66 -65 -60 -56 -45 -30 -64 -59 -55 -44 -29 -58 -54 -43 -28 -52 -41 -26 -40 -25 -23 0
-23 -25 -27 -28 -29 -30 -40 -42 -43 -44 -45 -53 -54 -55 -56 -61 -62 -63 -64 -65 -66 0
-30 -29 -28 -27 -25 -23 -66 -65 -63 -56 -45 -64 -62 -55 -44 -61 -54 -43 -53 -42 -40 0
-23 -45 -44 -43 -42 -40 -30 -29 -28 -27 -25 -66 -65 -63 -56 -64 -62 -55 -61 -54 -53 0
-40 -42 -43 -44 -45 -23 -53 -54 -55 -56 -25 -61 -62 -63 -27 -64 -65 -28 -66 -29 -30 0
-40 -25 -56 -55 -54 -53 -23 -45 -44 -43 -42 -30 -29 -28 -27 -66 -65 -63 -64 -62 -61 0
-53 -54 -55 -56 -25 -40 -61 -62 -63 -27 -42 -64 -65 -28 -43 -66 -29 -44 -30 -45 -23 0
-53 -42 -27 -63 -62 -61 -40 -25 -56 -55 -54 -23 -45 -44 -43 -30 -29 -28 -66 -65 -64 0
-61 -62 -63 -27 -42 -53 -64 -65 -28 -43 -54 -66 -29 -44 -55 -30 -45 -56 -23 -25 -40 0
-61 -54 -43 -28 -65 -64 -53 -42 -27 -63 -62 -40 -25 -56 -55 -23 -45 -44 -30 -29 -66 0
-64 -65 -28 -43 -54 -61 -66 -29 -44 -55 -62 -30 -45 -56 -63 -23 -25 -27 -40 -42 -53 0
-64 -62 -55 -44 -29 -66 -61 -54 -43 -28 -65 -53 -42 -27 -63 -40 -25 -56 -23 -45 -30 0
-66 -29 -44 -55 -62 -64 -30 -45 -56 -63 -65 -23 -25 -27 -28 -40 -42 -43 -53 -54 -61 0
-30 -45 -56 -63 -65 -66 -23 -25 -27 -28 -29 -40 -42 -43 -44 -53 -54 -55 -61 -62 -64 0
-66 -65 -63 -56 -45 -30 -64 -62 -55 -44 -29 -61 -54 -43 -28 -53 -42 -27 -40 -25 -23 0
-23 -26 -27 -28 -29 -30 -41 -42 -43 -44 -45 -57 -58 -59 -60 -61 -62 -63 -64 -65 -66 0
-30 -29 -28 -27 -26 -23 -66 -65 -63 -60 -45 -64 -62 -59 -44 -61 -58 -43 -57 -42 -41 0
-23 -45 -44 -43 -42 -41 -30 -29 -28 -27 -26 -66 -65 -63 -60 -64 -62 -59 -61 -58 -57 0
-41 -42 -43 -44 -45 -23 -57 -58 -59 -60 -26 -61 -62 -63 -27 -64 -65 -28 -66 -29 -30 0
-41 -26 -60 -59 -58 -57 -23 -45 -44 -43 -42 -30 -29 -28 -27 -66 -65 -63 -64 -62 -61 0
-57 -58 -59 -60 -26 -41 -61 -62 -63 -27 -42 -64 -65 -28 -43 -66 -29 -44 -30 -45 -23 0
-57 -42 -27 -63 -62 -61 -41 -26 -60 -59 -58 -23 -45 -44 -43 -30 -29 -28 -66 -65 -64 0
-61 -62 -63 -27 -42 -57 -64 -65 -28 -43 -58 -66 -29 -44 -59 -30 -45 -60 -23 -26 -41 0
-61 -58 -43 -28 -65 -64 -57 -42 -27 -63 -62 -41 -26 -60 -59 -23 -45 -44 -30 -29 -66 0
-64 -65 -28 -43 -58 -61 -66 -29 -44 -59 -62 -30 -45 -60 -63 -23 -26 -27 -41 -42 -57 0
-64 -62 -59 -44 -29 -66 -61 -58 -43 -28 -65 -57 -42 -27 -63 -41 -26 -60 -23 -45 -30 0
-66 -29 -44 -59 -62 -64 -30 -45 -60 -63 -65 -23 -26 -27 -28 -41 -42 -43 -57 -58 -61 0
-30 -45 -60 -63 -65 -66 -23 -26 -27 -28 -29 -41 -42 -43 -44 -57 -58 -59 -61 -62 -64 0
-66 -65 -63 -60 -45 -30 -64 -62 -59 -44 -29 -61 -58 -43 -28 -57 -42 -27 -41 -26 -23 0
-24 -25 -26 -27 -28 -29 -46 -47 -48 -49 -50 -52 -53 -54 -55 -57 -58 -59 -61 -62 -64 0
-29 -28 -27 -26 -25 -24 -64 -62 -59 -55 -50 -61 -58 -54 -49 -57 -53 -48 -52 -47 -46 0
-24 -50 -49 -48 -47 -46 -29 -28 -27 -26 -25 -64 -62 -59 -55 -61 -58 -54 -57 -53 -52 0
-46 -47 -48 -49 -50 -24 -52 -53 -54 -55 -25 -57 -58 -59 -26 -61 -62 -27 -64 -28 -29 0
-46 -25 -55 -54 -53 -52 -24 -50 -49 -48 -47 -29 -28 -27 -26 -64 -62 -59 -61 -58 -57 0
-52 -53 -54 -55 -25 -46 -57 -58 -59 -26 -47 -61 -62 -27 -48 -64 -28 -49 -29 -50 -24 0
-52 -47 -26 -59 -58 -57 -46 -25 -55 -54 -53 -24 -50 -49 -48 -29 -28 -27 -64 -62 -61 0
-57 -58 -59 -26 -47 -52 -61 -62 -27 -48 -53 -64 -28 -49 -54 -29 -50 -55 -24 -25 -46 0
-57 -53 -48 -27 -62 -61 -52 -47 -26 -59 -58 -46 -25 -55 -54 -24 -50 -49 -29 -28 -64 0
-61 -62 -27 -48 -53 -57 -64 -28 -49 -54 -58 -29 -50 -55 -59 -24 -25 -26 -46 -47 -52 0
-61 -58 -54 -49 -28 -64 -57 -53 -48 -27 -62 -52 -47 -26 -59 -46 -25 -55 -24 -50 -29 0
-64 -28 -49 -54 -58 -61 -29 -50 -55 -59 -62 -24 -25 -26 -27 -46 -47 -48 -52 -53 -57 0
-29 -50 -55 -59 -62 -64 -24 -25 -26 -27 -28 -46 -47 -48 -49 -52 -53 -54 -57 -58 -61 0
-64 -62 -59 -55 -50 -29 -61 -58 -54 -49 -28 -57 -53 -48 -27 -52 -47 -26 -46 -25 -24 0
-24 -25 -26 -27 -28 -30 -46 -47 -48 -49 -51 -52 -53 -54 -56 -57 -58 -60 -61 -63 -65 0
-30 -28 -27 -26 -25 -24 -65 -63 -60 -56 -51 -61 -58 -54 -49 -57 -53 -48 -52 -47 -46 0
-24 -51 -49 -48 -47 -46 -30 -28 -27 -26 -25 -65 -63 -60 -56 -61 -58 -54 -57 -53 -52 0
-46 -47 -48 -49 -51 -24 -52 -53 -54 -56 -25 -57 -58 -60 -26 -61 -63 -27 -65 -28 -30 0
-46 -25 -56 -54 -53 -52 -24 -51 -49 -48 -47 -30 -28 -27 -26 -65 -63 -60 -61 -58 -57 0
-52 -53 -54 -56 -25 -46 -57 -58 -60 -26 -47 -61 -63 -27 -48 -65 -28 -49 -30 -51 -24 0
-52 -47 -26 -60 -58 -57 -46 -25 -56 -54 -53 -24 -51 -49 -48 -30 -28 -27 -65 -63 -61 0
-57 -58 -60 -26 -47 -52 -61 -63 -27 -48 -53 -65 -28 -49 -54 -30 -51 -56 -24 -25 -46 0
-57 -53 -48 -27 -63 -61 -52 -47 -26 -60 -58 -46 -25 -56 -54 -24 -51 -49 -30 -28 -65 0
-61 -63 -27 -48 -53 -57 -65 -28 -49 -54 -58 -30 -51 -56 -60 -24 -25 -26 -46 -47 -52 0
-61 -58 -54 -49 -28 -65 -57 -53 -48 -27 -63 -52 -47 -26 -60 -46 -25 -56 -24 -51 -30 0
-65 -28 -49 -54 -58 -61 -30 -51 -56 -60 -63 -24 -25 -26 -27 -46 -47 -48 -52 -53 -57 0
-30 -51 -56 -60 -63 -65 -24 -25 -26 -27 -28 -46 -47 -48 -49 -52 -53 -54 -57 -58 -61 0
-65 -63 -60 -56 -51 -30 -61 -58 -54 -49 -28 -57 -53 -48 -27 -52 -47 -26 -46 -25 -24 0
-24 -25 -26 -27 -29 -30 -46 -47 -48 -50 -51 -52 -53 -55 -56 -57 -59 -60 -62 -63 -66 0
-30 -29 -27 -26 -25 -24 -66 -63 -60 -56 -51 -62 -59 -55 -50 -57 -53 -48 -52 -47 -46 0
-24 -51 -50 -48 -47 -46 -30 -29 -27 -26 -25 -66 -63 -60 -56 -62 -59 -55 -57 -53 -52 0
-46 -47 -48 -50 -51 -24 -52 -53 -55 -56 -25 -57 -59 -60 -26 -62 -63 -27 -66 -29 -30 0
-46 -25 -56 -55 -53 -52 -24 -51 -50 -48 -47 -30 -29 -27 -26 -66 -63 -60 -62 -59 -57 0
-52 -53 -55 -56 -25 -46 -57 -59 -60 -26 -47 -62 -63 -27 -48 -66 -29 -50 -30 -51 -24 0
-52 -47 -26 -60 -59 -57 -46 -25 -56 -55 -53 -24 -51 -50 -48 -30 -29 -27 -66 -63 -62 0
-57 -59 -60 -26 -47 -52 -62 -63 -27 -48 -53 -66 -29 -50 -55 -30 -51 -56 -24 -25 -46 0
-57 -53 -48 -27 -63 -62 -52 -47 -26 -60 -59 -46 -25 -56 -55 -24 -51 -50 -30 -29 -66 0
-62 -63 -27 -48 -53 -57 -66 -29 -50 -55 -59 -30 -51 -56 -60 -24 -25 -26 -46 -47 -52 0
-62 -59 -55 -50 -29 -66 -57 -53 -48 -27 -63 -52 -47 -26 -60 -46 -25 -56 -24 -51 -30 0
-66 -29 -50 -55 -59 -62 -30 -51 -56 -60 -63 -24 -25 -26 -27 -46 -47 -48 -52 -53 -57 0
-30 -51 -56 -60 -63 -66 -24 -25 -26 -27 -29 -46 -47 -48 -50 -52 -53 -55 -57 -59 -62 0
-66 -63 -60 -56 -51 -30 -62 -59 -55 -50 -29 -57 -53 -48 -27 -52 -47 -26 -46 -25 -24 0
-24 -25 -26 -28 -29 -30 -46 -47 -49 -50 -51 -52 -54 -55 -56 -58 -59 -60 -64 -65 -66 0
-30 -29 -28 -26 -25 -24 -66 -65 -60 -56 -51 -64 -59 -55 -50 -58 -54 -49 -52 -47 -46 0
-24 -51 -50 -49 -47 -46 -30 -29 -28 -26 -25 -66 -65 -60 -56 -64 -59 -55 -58 -54 -52 0
-46 -47 -49 -50 -51 -24 -52 -54 -55 -56 -25 -58 -59 -60 -26 -64 -65 -28 -66 -29 -30 0
-46 -25 -56 -55 -54 -52 -24 -51 -50 -49 -47 -30 -29 -28 -26 -66 -65 -60 -64 -59 -58 0
-52 -54 -55 -56 -25 -46 -58 -59 -60 -26 -47 -64 -65 -28 -49 -66 -29 -50 -30 -51 -24 0
-52 -47 -26 -60 -59 -58 -46 -25 -56 -55 -54 -24 -51 -50 -49 -30 -29 -28 -66 -65 -64 0
-58 -59 -60 -26 -47 -52 -64 -65 -28 -49 -54 -66 -29 -50 -55 -30 -51 -56 -24 -25 -46 0
-58 -54 -49 -28 -65 -64 -52 -47 -26 -60 -59 -46 -25 -56 -55 -24 -51 -50 -30 -29 -66 0
-64 -65 -28 -49 -54 -58 -66 -29 -50 -55 -59 -30 -51 -56 -60 -24 -25 -26 -46 -47 -52 0
-64 -59 -55 -50 -29 -66 -58 -54 -49 -28 -65 -52 -47 -26 -60 -46 -25 -56 -24 -51 -30 0
-66 -29 -50 -55 -59 -64 -30 -51 -56 -60 -65 -24 -25 -26 -28 -46 -47 -49 -52 -54 -58 0
-30 -51 -56 -60 -65 -66 -24 -25 -26 -28 -29 -46 -47 -49 -50 -52 -54 -55 -58 -59 -64 0
-66 -65 -60 -56 -51 -30 -64 -59 -55 -50 -29 -58 -54 -49 -28 -52 -47 -26 -46 -25 -24 0
-24 -25 -27 -28 -29 -30 -46 -48 -49 -50 -51 -53 -54 -55 -56 -61 -62 -63 -64 -65 -66 0
-30 -29 -28 -27 -25 -24 -66 -65 -63 -56 -51 -64 -62 -55 -50 -61 -54 -49 -53 -48 -46 0
-24 -51 -50 -49 -48 -46 -30 -29 -28 -27 -25 -66 -65 -63 -56 -64 -62 -55 -61 -54 -53 0
-46 -48 -49 -50 -51 -24 -53 -54 -55 -56 -25 -61 -62 -63 -27 -64 -65 -28 -66 -29 -30 0
-46 -25 -56 -55 -54 -53 -24 -51 -50 -49 -48 -30 -29 -28 -27 -66 -65 -63 -64 -62 -61 0
-53 -54 -55 -56 -25 -46 -61 -62 -63 -27 -48 -64 -65 -28 -49 -66 -29 -50 -30 -51 -24 0
-53 -48 -27 -63 -62 -61 -46 -25 -56 -55 -54 -24 -51 -50 -49 -30 -29 -28 -66 -65 -64 0
-61 -62 -63 -27 -48 -53 -64 -65 -28 -49 -54 -66 -29 -50 -55 -30 -51 -56 -24 -25 -46 0
-61 -54 -49 -28 -65 -64 -53 -48 -27 -63 -62 -46 -25 -56 -55 -24 -51 -50 -30 -29 -66 0
-64 -65 -28 -49 -54 -61 -66 -29 -50 -55 -62 -30 -51 -56 -63 -24 -25 -27 -46 -48 -53 0
-64 -62 -55 -50 -29 -66 -61 -54 -49 -28 -65 -53 -48 -27 -63 -46 -25 -56 -24 -51 -30 0
-66 -29 -50 -55 -62 -64 -30 -51 -56 -63 -65 -24 -25 -27 -28 -46 -48 -49 -53 -54 -61 0
-30 -51 -56 -63 -65 -66 -24 -25 -27 -28 -29 -46 -48 -49 -50 -53 -54 -55 -61 -62 -64 0
-66 -65 -63 -56 -51 -30 -64 -62 -55 -50 -29 -61 -54 -49 -28 -53 -48 -27 -46 -25 -24 0
-24 -26 -27 -28 -29 -30 -47 -48 -49 -50 -51 -57 -58 -59 -60 -61 -62 -63 -64 -65 -66 0
-30 -29 -28 -27 -26 -24 -66 -65 -63 -60 -51 -64 -62 -59 -50 -61 -58 -49 -57 -48 -47 0
-24 -51 -50 -49 -48 -47 -30 -29 -28 -27 -26 -66 -65 -63 -60 -64 -62 -59 -61 -58 -57 0
-47 -48 -49 -50 -51 -24 -57 -58 -59 -60 -26 -61 -62 -63 -27 -64 -65 -28 -66 -29 -30 0
-47 -26 -60 -59 -58 -57 -24 -51 -50 -49 -48 -30 -29 -28 -27 -66 -65 -63 -64 -62 -61 0
-57 -58 -59 -60 -26 -47 -61 -62 -63 -27 -48 -64 -65 -28 -49 -66 -29 -50 -30 -51 -24 0
-57 -48 -27 -63 -62 -61 -47 -26 -60 -59 -58 -24 -51 -50 -49 -30 -29 -28 -66 -65 -64 0
-61 -62 -63 -27 -48 -57 -64 -65 -28 -49 -58 -66 -29 -50 -59 -30 -51 -60 -24 -26 -47 0
-61 -58 -49 -28 -65 -64 -57 -48 -27 -63 -62 -47 -26 -60 -59 -24 -51 -50 -30 -29 -66 0
-64 -65 -28 -49 -58 -61 -66 -29 -50 -59 -62 -30 -51 -60 -63 -24 -26 -27 -47 -48 -57 0
-64 -62 -59 -50 -29 -66 -61 -58 -49 -28 -65 -57 -48 -27 -63 -47 -26 -60 -24 -51 -30 0
-66 -29 -50 -59 -62 -64 -30 -51 -60 -63 -65 -24 -26 -27 -28 -47 -48 -49 -57 -58 -61 0
-30 -51 -60 -63 -65 -66 -24 -26 -27 -28 -29 -47 -48 -49 -50 -57 -58 -59 -61 -62 -64 0
-66 -65 -63 -60 -51 -30 -64 -62 -59 -50 -29 -61 -58 -49 -28 -57 -48 -27 -47 -26 -24 0
-25 -26 -27 -28 -29 -30 -52 -53 -54 -55 -56 -57 -58 -59 -60 -61 -62 -63 -64 -65 -66 0
-30 -29 -28 -27 -26 -25 -66 -65 -63 -60 -56 -64 -62 -59 -55 -61 -58 -54 -57 -53 -52 0
-25 -56 -55 -54 -53 -52 -30 -29 -28 -27 -26 -66 -65 -63 -60 -64 -62 -59 -61 -58 -57 0
-52 -53 -54 -55 -56 -25 -57 -58 -59 -60 -26 -61 -62 -63 -27 -64 -65 -28 -66 -29 -30 0
-52 -26 -60 -59 -58 -57 -25 -56 -55 -54 -53 -30 -29 -28 -27 -66 -65 -63 -64 -62 -61 0
-57 -58 -59 -60 -26 -52 -61 -62 -63 -27 -53 -64 -65 -28 -54 -66 -29 -55 -30 -56 -25 0
-57 -53 -27 -63 -62 -61 -52 -26 -60 -59 -58 -25 -56 -55 -54 -30 -29 -28 -66 -65 -64 0
-61 -62 -63 -27 -53 -57 -64 -65 -28 -54 -58 -66 -29 -55 -59 -30 -56 -60 -25 -26 -52 0
-61 -58 -54 -28 -65 -64 -57 -53 -27 -63 -62 -52 -26 -60 -59 -25 -56 -55 -30 -29 -66 0
-64 -65 -28 -54 -58 -61 -66 -29 -55 -59 -62 -30 -56 -60 -63 -25 -26 -27 -52 -53 -57 0
-64 -62 -59 -55 -29 -66 -61 -58 -54 -28 -65 -57 -53 -27 -63 -52 -26 -60 -25 -56 -30 0
-66 -29 -55 -59 -62 -64 -30 -56 -60 -63 -65 -25 -26 -27 -28 -52 -53 -54 -57 -58 -61 0
-30 -56 -60 -63 -65 -66 -25 -26 -27 -28 -29 -52 -53 -54 -55 -57 -58 -59 -61 -62 -64 0
-66 -65 -63 -60 -56 -30 -64 -62 -59 -55 -29 -61 -58 -54 -28 -57 -53 -27 -52 -26 -25 0
-31 -32 -33 -34 -35 -36 -39 -40 -41 -42 -43 -46 -47 -48 -49 -52 -53 -54 -57 -58 -61 0
-36 -35 -34 -33 -32 -31 -61 -58 -54 -49 -43 -57 -53 -48 -42 -52 -47 -41 -46 -40 -39 0
-31 -43 -42 -41 -40 -39 -36 -35 -34 -33 -32 -61 -58 -54 -49 -57 -53 -48 -52 -47 -46 0
-39 -40 -41 -42 -43 -31 -46 -47 -48 -49 -32 -52 -53 -54 -33 -57 -58 -34 -61 -35 -36 0
-39 -32 -49 -48 -47 -46 -31 -43 -42 -41 -40 -36 -35 -34 -33 -61 -58 -54 -57 -53 -52 0
-46 -47 -48 -49 -32 -39 -52 -53 -54 -33 -40 -57 -58 -34 -41 -61 -35 -42 -36 -43 -31 0
-46 -40 -33 -54 -53 -52 -39 -32 -49 -48 -47 -31 -43 -42 -41 -36 -35 -34 -61 -58 -57 0
-52 -53 -54 -33 -40 -46 -57 -58 -34 -41 -47 -61 -35 -42 -48 -36 -43 -49 -31 -32 -39 0
-52 -47 -41 -34 -58 -57 -46 -40 -33 -54 -53 -39 -32 -49 -48 -31 -43 -42 -36 -35 -61 0
-57 -58 -34 -41 -47 -52 -61 -35 -42 -48 -53 -36 -43 -49 -54 -31 -32 -33 -39 -40 -46 0
-57 -53 -48 -42 -35 -61 -52 -47 -41 -34 -58 -46 -40 -33 -54 -39 -32 -49 -31 -43 -36 0
-61 -35 -42 -48 -53 -57 -36 -43 -49 -54 -58 -31 -32 -33 -34 -39 -40 -41 -46 -47 -52 0
-36 -43 -49 -54 -58 -61 -31 -32 -33 -34 -35 -39 -40 -41 -42 -46 -47 -48 -52 -53 -57 0
-61 -58 -54 -49 -43 -36 -57 -53 -48 -42 -35 -52 -47 -41 -34 -46 -40 -33 -39 -32 -31 0
-31 -32 -33 -34 -35 -37 -39 -40 -41 -42 -44 -46 -47 -48 -50 -52 -53 -55 -57 -59 -62 0
-37 -35 -34 -33 -32 -31 -62 -59 -55 -50 -44 -57 -53 -48 -42 -52 -47 -41 -46 -40 -39 0
-31 -44 -42 -41 -40 -39 -37 -35 -34 -33 -32 -62 -59 -55 -50 -57 -53 -48 -52 -47 -46 0
-39 -40 -41 -42 -44 -31 -46 -47 -48 -50 -32 -52 -53 -55 -33 -57 -59 -34 -62 -35 -37 0
-39 -32 -50 -48 -47 -46 -31 -44 -42 -41 -40 -37 -35 -34 -33 -62 -59 -55 -57 -53 -52 0
-46 -47 -48 -50 -32 -39 -52 -53 -55 -33 -40 -57 -59 -34 -41 -62 -35 -42 -37 -44 -31 0
-46 -40 -33 -55 -53 -52 -39 -32 -50 -48 -47 -31 -44 -42 -41 -37 -35 -34 -62 -59 -57 0
-52 -53 -55 -33 -40 -46 -57 -59 -34 -41 -47 -62 -35 -42 -48 -37 -44 -50 -31 -32 -39 0
-52 -47 -41 -34 -59 -57 -46 -40 -33 -55 -53 -39 -32 -50 -48 -31 -44 -42 -37 -35 -62 0
-57 -59 -34 -41 -47 -52 -62 -35 -42 -48 -53 -37 -44 -50 -55 -31 -32 -33 -39 -40 -46 0
-57 -53 -48 -42 -35 -62 -52 -47 -41 -34 -59 -46 -40 -33 -55 -39 -32 -50 -31 -44 -37 0
-62 -35 -42 -48 -53 -57 -37 -44 -50 -55 -59 -31 -32 -33 -34 -39 -40 -41 -46 -47 -52 0
-37 -44 -50 -55 -59 -62 -31 -32 -33 -34 -35 -39 -40 -41 -42 -46 -47 -48 -52 -53 -57 0
-62 -59 -55 -50 -44 -37 -57 -53 -48 -42 -35 -52 -47 -41 -34 -46 -40 -33 -39 -32 -31 0
-31 -32 -33 -34 -35 -38 -39 -40 -41 -42 -45 -46 -47 -48 -51 -52 -53 -56 -57 -60 -63 0
-38 -35 -34 -33 -32 -31 -63 -60 -56 -51 -45 -57 -53 -48 -42 -52 -47 -41 -46 -40 -39 0
-31 -45 -42 -41 -40 -39 -38 -35 -34 -33 -32 -63 -60 -56 -51 -57 -53 -48 -52 -47 -46 0
-39 -40 -41 -42 -45 -31 -46 -47 -48 -51 -32 -52 -53 -56 -33 -57 -60 -34 -63 -35 -38 0
-39 -32 -51 -48 -47 -46 -31 -45 -42 -41 -40 -38 -35 -34 -33 -63 -60 -56 -57 -53 -52 0
-46 -47 -48 -51 -32 -39 -52 -53 -56 -33 -40 -57 -60 -34 -41 -63 -35 -42 -38 -45 -31 0
-46 -40 -33 -56 -53 -52 -39 -32 -51 -48 -47 -31 -45 -42 -41 -38 -35 -34 -63 -60 -57 0
-52 -53 -56 -33 -40 -46 -57 -60 -34 -41 -47 -63 -35 -42 -48 -38 -45 -51 -31 -32 -39 0
-52 -47 -41 -34 -60 -57 -46 -40 -33 -56 -53 -39 -32 -51 -48 -31 -45 -42 -38 -35 -63 0
-57 -60 -34 -41 -47 -52 -63 -35 -42 -48 -53 -38 -45 -51 -56 -31 -32 -33 -39 -40 -46 0
-57 -53 -48 -42 -35 -63 -52 -47 -41 -34 -60 -46 -40 -33 -56 -39 -32 -51 -31 -45 -38 0
-63 -35 -42 -48 -53 -57 -38 -45 -51 -56 -60 -31 -32 -33 -34 -39 -40 -41 -46 -47 -52 0
-38 -45 -51 -56 -60 -63 -31 -32 -33 -34 -35 -39 -40 -41 -42 -46 -47 -48 -52 -53 -57 0
-63 -60 -56 -51 -45 -38 -57 -53 -48 -42 -35 -52 -47 -41 -34 -46 -40 -33 -39 -32 -31 0
-31 -32 -33 -34 -36 -37 -39 -40 -41 -43 -44 -46 -47 -49 -50 -52 -54 -55 -58 -59 -64 0
-37 -36 -34 -33 -32 -31 -64 -59 -55 -50 -44 -58 -54 -49 -43 -52 -47 -41 -46 -40 -39 0
-31 -44 -43 -41 -40 -39 -37 -36 -34 -33 -32 -64 -59 -55 -50 -58 -54 -49 -52 -47 -46 0
-39 -40 -41 -43 -44 -31 -46 -47 -49 -50 -32 -52 -54 -55 -33 -58 -59 -34 -64 -36 -37 0
-39 -32 -50 -49 -47 -46 -31 -44 -43 -41 -40 -37 -36 -34 -33 -64 -59 -55 -58 -54 -52 0
-46 -47 -49 -50 -32 -39 -52 -54 -55 -33 -40 -58 -59 -34 -41 -64 -36 -43 -37 -44 -31 0
-46 -40 -33 -55 -54 -52 -39 -32 -50 -49 -47 -31 -44 -43 -41 -37 -36 -34 -64 -59 -58 0
-52 -54 -55 -33 -40 -46 -58 -59 -34 -41 -47 -64 -36 -43 -49 -37 -44 -50 -31 -32 -39 0
-52 -47 -41 -34 -59 -58 -46 -40 -33 -55 -54 -39 -32 -50 -49 -31 -44 -43 -37 -36 -64 0
-58 -59 -34 -41 -47 -52 -64 -36 -43 -49 -54 -37 -44 -50 -55 -31 -32 -33 -39 -40 -46 0
-58 -54 -49 -43 -36 -64 -52 -47 -41 -34 -59 -46 -40 -33 -55 -39 -32 -50 -31 -44 -37 0
-64 -36 -43 -49 -54 -58 -37 -44 -50 -55 -59 -31 -32 -33 -34 -39 -40 -41 -46 -47 -52 0
-37 -44 -50 -55 -59 -64 -31 -32 -33 -34 -36 -39 -40 -41 -43 -46 -47 -49 -52 -54 -58 0
-64 -59 -55 -50 -44 -37 -58 -54 -49 -43 -36 -52 -47 -41 -34 -46 -40 -33 -39 -32 -31 0
-31 -32 -33 -34 -36 -38 -39 -40 -41 -43 -45 -46 -47 -49 -51 -52 -54 -56 -58 -60 -65 0
-38 -36 -34 -33 -32 -31 -65 -60 -56 -51 -45 -58 -54 -49 -43 -52 -47 -41 -46 -40 -39 0
-31 -45 -43 -41 -40 -39 -38 -36 -34 -33 -32 -65 -60 -56 -51 -58 -54 -49 -52 -47 -46 0
-39 -40 -41 -43 -45 -31 -46 -47 -49 -51 -32 -52 -54 -56 -33 -58 -60 -34 -65 -36 -38 0
-39 -32 -51 -49 -47 -46 -31 -45 -43 -41 -40 -38 -36 -34 -33 -65 -60 -56 -58 -54 -52 0
-46 -47 -49 -51 -32 -39 -52 -54 -56 -33 -40 -58 -60 -34 -41 -65 -36 -43 -38 -45 -31 0
-46 -40 -33 -56 -54 -52 -39 -32 -51 -49 -47 -31 -45 -43 -41 -38 -36 -34 -65 -60 -58 0
-52 -54 -56 -33 -40 -46 -58 -60 -34 -41 -47 -65 -36 -43 -49 -38 -45 -51 -31 -32 -39 0
-52 -47 -41 -34 -60 -58 -46 -40 -33 -56 -54 -39 -32 -51 -49 -31 -45 -43 -38 -36 -65 0
-58 -60 -34 -41 -47 -52 -65 -36 -43 -49 -54 -38 -45 -51 -56 -31 -32 -33 -39 -40 -46 0
-58 -54 -49 -43 -36 -65 -52 -47 -41 -34 -60 -46 -40 -33 -56 -39 -32 -51 -31 -45 -38 0
-65 -36 -43 -49 -54 -58 -38 -45 -51 -56 -60 -31 -32 -33 -34 -39 -40 -41 -46 -47 -52 0
-38 -45 -51 -56 -60 -65 -31 -32 -33 -34 -36 -39 -40 -41 -43 -46 -47 -49 -52 -54 -58 0
-65 -60 -56 -51 -45 -38 -58 -54 -49 -43 -36 -52 -47 -41 -34 -46 -40 -33 -39 -32 -31 0
-31 -32 -33 -34 -37 -38 -39 -40 -41 -44 -45 -46 -47 -50 -51 -52 -55 -56 -59 -60 -66 0
-38 -37 -34 -33 -32 -31 -66 -60 -56 -51 -45 -59 -55 -50 -44 -52 -47 -41 -46 -40 -39 0
-31 -45 -44 -41 -40 -39 -38 -37 -34 -33 -32 -66 -60 -56 -51 -59 -55 -50 -52 -47 -46 0
-39 -40 -41 -44 -45 -31 -46 -47 -50 -51 -32 -52 -55 -56 -33 -59 -60 -34 -66 -37 -38 0
-39 -32 -51 -50 -47 -46 -31 -45 -44 -41 -40 -38 -37 -34 -33 -66 -60 -56 -59 -55 -52 0
-46 -47 -50 -51 -32 -39 -52 -55 -56 -33 -40 -59 -60 -34 -41 -66 -37 -44 -38 -45 -31 0
-46 -40 -33 -56 -55 -52 -39 -32 -51 -50 -47 -31 -45 -44 -41 -38 -37 -34 -66 -60 -59 0
-52 -55 -56 -33 -40 -46 -59 -60 -34 -41 -47 -66 -37 -44 -50 -38 -45 -51 -31 -32 -39 0
-52 -47 -41 -34 -60 -59 -46 -40 -33 -56 -55 -39 -32 -51 -50 -31 -45 -44 -38 -37 -66 0
-59 -60 -34 -41 -47 -52 -66 -37 -44 -50 -55 -38 -45 -51 -56 -31 -32 -33 -39 -40 -46 0
-59 -55 -50 -44 -37 -66 -52 -47 -41 -34 -60 -46 -40 -33 -56 -39 -32 -51 -31 -45 -38 0
-66 -37 -44 -50 -55 -59 -38 -45 -51 -56 -60 -31 -32 -33 -34 -39 -40 -41 -46 -47 -52 0
-38 -45 -51 -56 -60 -66 -31 -32 -33 -34 -37 -39 -40 -41 -44 -46 -47 -50 -52 -55 -59 0
-66 -60 -56 -51 -45 -38 -59 -55 -50 -44 -37 -52 -47 -41 -34 -46 -40 -33 -39 -32 -31 0
-31 -32 -33 -35 -36 -37 -39 -40 -42 -43 -44 -46 -48 -49 -50 -53 -54 -55 -61 -62 -64 0
-37 -36 -35 -33 -32 -31 -64 -62 -55 -50 -44 -61 -54 -49 -43 -53 -48 -42 -46 -40 -39 0
-31 -44 -43 -42 -40 -39 -37 -36 -35 -33 -32 -64 -62 -55 -50 -61 -54 -49 -53 -48 -46 0
-39 -40 -42 -43 -44 -31 -46 -48 -49 -50 -32 -53 -54 -55 -33 -61 -62 -35 -64 -36 -37 0
-39 -32 -50 -49 -48 -46 -31 -44 -43 -42 -40 -37 -36 -35 -33 -64 -62 -55 -61 -54 -53 0
-46 -48 -49 -50 -32 -39 -53 -54 -55 -33 -40 -61 -62 -35 -42 -64 -36 -43 -37 -44 -31 0
-46 -40 -33 -55 -54 -53 -39 -32 -50 -49 -48 -31 -44 -43 -42 -37 -36 -35 -64 -62 -61 0
-53 -54 -55 -33 -40 -46 -61 -62 -35 -42 -48 -64 -36 -43 -49 -37 -44 -50 -31 -32 -39 0
-53 -48 -42 -35 -62 -61 -46 -40 -33 -55 -54 -39 -32 -50 -49 -31 -44 -43 -37 -36 -64 0
-61 -62 -35 -42 -48 -53 -64 -36 -43 -49 -54 -37 -44 -50 -55 -31 -32 -33 -39 -40 -46 0
-61 -54 -49 -43 -36 -64 -53 -48 -42 -35 -62 -46 -40 -33 -55 -39 -32 -50 -31 -44 -37 0
-64 -36 -43 -49 -54 -61 -37 -44 -50 -55 -62 -31 -32 -33 -35 -39 -40 -42 -46 -48 -53 0
-37 -44 -50 -55 -62 -64 -31 -32 -33 -35 -36 -39 -40 -42 -43 -46 -48 -49 -53 -54 -61 0
-64 -62 -55 -50 -44 -37 -61 -54 -49 -43 -36 -53 -48 -42 -35 -46 -40 -33 -39 -32 -31 0
-31 -32 -33 -35 -36 -38 -39 -40 -42 -43 -45 -46 -48 -49 -51 -53 -54 -56 -61 -63 -65 0
-38 -36 -35 -33 -32 -31 -65 -63 -56 -51 -45 -61 -54 -49 -43 -53 -48 -42 -46 -40 -39 0
-31 -45 -43 -42 -40 -39 -38 -36 -35 -33 -32 -65 -63 -56 -51 -61 -54 -49 -53 -48 -46 0
-39 -40 -42 -43 -45 -31 -46 -48 -49 -51 -32 -53 -54 -56 -33 -61 -63 -35 -65 -36 -38 0
-39 -32 -51 -49 -48 -46 -31 -45 -43 -42 -40 -38 -36 -35 -33 -65 -63 -56 -61 -54 -53 0
-46 -48 -49 -51 -32 -39 -53 -54 -56 -33 -40 -61 -63 -35 -42 -65 -36 -43 -38 -45 -31 0
-46 -40 -33 -56 -54 -53 -39 -32 -51 -49 -48 -31 -45 -43 -42 -38 -36 -35 -65 -63 -61 0
-53 -54 -56 -33 -40 -46 -61 -63 -35 -42 -48 -65 -36 -43 -49 -38 -45 -51 -31 -32 -39 0
-53 -48 -42 -35 -63 -61 -46 -40 -33 -56 -54 -39 -32 -51 -49 -31 -45 -43 -38 -36 -65 0
-61 -63 -35 -42 -48 -53 -65 -36 -43 -49 -54 -38 -45 -51 -56 -31 -32 -33 -39 -40 -46 0
-61 -54 -49 -43 -36 -65 -53 -48 -42 -35 -63 -46 -40 -33 -56 -39 -32 -51 -31 -45 -38 0
-65 -36 -43 -49 -54 -61 -38 -45 -51 -56 -63 -31 -32 -33 -35 -39 -40 -42 -46 -48 -53 0
-38 -45 -51 -56 -63 -65 -31 -32 -33 -35 -36 -39 -40 -42 -43 -46 -48 -49 -53 -54 -61 0
-65 -63 -56 -51 -45 -38 -61 -54 -49 -43 -36 -53 -48 -42 -35 -46 -40 -33 -39 -32 -31 0
-31 -32 -33 -35 -37 -38 -39 -40 -42 -44 -45 -46 -48 -50 -51 -53 -55 -56 -62 -63 -66 0
-38 -37 -35 -33 -32 -31 -66 -63 -56 -51 -45 -62 -55 -50 -44 -53 -48 -42 -46 -40 -39 0
-31 -45 -44 -42 -40 -39 -38 -37 -35 -33 -32 -66 -63 -56 -51 -62 -55 -50 -53 -48 -46 0
-39 -40 -42 -44 -45 -31 -46 -48 -50 -51 -32 -53 -55 -56 -33 -62 -63 -35 -66 -37 -38 0
-39 -32 -51 -50 -48 -46 -31 -45 -44 -42 -40 -38 -37 -35 -33 -66 -63 -56 -62 -55 -53 0
-46 -48 -50 -51 -32 -39 -53 -55 -56 -33 -40 -62 -63 -35 -42 -66 -37 -44 -38 -45 -31 0
-46 -40 -33 -56 -55 -53 -39 -32 -51 -50 -48 -31 -45 -44 -42 -38 -37 -35 -66 -63 -62 0
-53 -55 -56 -33 -40 -46 -62 -63 -35 -42 -48 -66 -37 -44 -50 -38 -45 -51 -31 -32 -39 0
-53 -48 -42 -35 -63 -62 -46 -40 -33 -56 -55 -39 -32 -51 -50 -31 -45 -44 -38 -37 -66 0
-62 -63 -35 -42 -48 -53 -66 -37 -44 -50 -55 -38 -45 -51 -56 -31 -32 -33 -39 -40 -46 0
-62 -55 -50 -44 -37 -66 -53 -48 -42 -35 -63 -46 -40 -33 -56 -39 -32 -51 -31 -45 -38 0
-66 -37 -44 -50 -55 -62 -38 -45 -51 -56 -63 -31 -32 -33 -35 -39 -40 -42 -46 -48 -53 0
-38 -45 -51 -56 -63 -66 -31 -32 -33 -35 -37 -39 -40 -42 -44 -46 -48 -50 -53 -55 -62 0
-66 -63 -56 -51 -45 -38 -62 -55 -50 -44 -37 -53 -48 -42 -35 -46 -40 -33 -39 -32 -31 0
-31 -32 -33 -36 -37 -38 -39 -40 -43 -44 -45 -46 -49 -50 -51 -54 -55 -56 -64 -65 -66 0
-38 -37 -36 -33 -32 -31 -66 -65 -56 -51 -45 -64 -55 -50 -44 -54 -49 -43 -46 -40 -39 0
-31 -45 -44 -43 -40 -39 -38 -37 -36 -33 -32 -66 -65 -56 -51 -64 -55 -50 -54 -49 -46 0
-39 -40 -43 -44 -45 -31 -46 -49 -50 -51 -32 -54 -55 -56 -33 -64 -65 -36 -66 -37 -38 0
-39 -32 -51 -50 -49 -46 -31 -45 -44 -43 -40 -38 -37 -36 -33 -66 -65 -56 -64 -55 -54 0
-46 -49 -50 -51 -32 -39 -54 -55 -56 -33 -40 -64 -65 -36 -43 -66 -37 -44 -38 -45 -31 0
-46 -40 -33 -56 -55 -54 -39 -32 -51 -50 -49 -31 -45 -44 -43 -38 -37 -36 -66 -65 -64 0
-54 -55 -56 -33 -40 -46 -64 -65 -36 -43 -49 -66 -37 -44 -50 -38 -45 -51 -31 -32 -39 0
-54 -49 -43 -36 -65 -64 -46 -40 -33 -56 -55 -39 -32 -51 -50 -31 -45 -44 -38 -37 -66 0
-64 -65 -36 -43 -49 -54 -66 -37 -44 -50 -55 -38 -45 -51 -56 -31 -32 -33 -39 -40 -46 0
-64 -55 -50 -44 -37 -66 -54 -49 -43 -36 -65 -46 -40 -33 -56 -39 -32 -51 -31 -45 -38 0
-66 -37 -44 -50 -55 -64 -38 -45 -51 -56 -65 -31 -32 -33 -36 -39 -40 -43 -46 -49 -54 0
-38 -45 -51 -56 -65 -66 -31 -32 -33 -36 -37 -39 -40 -43 -44 -46 -49 -50 -54 -55 -64 0
-66 -65 -56 -51 -45 -38 -64 -55 -50 -44 -37 -54 -49 -43 -36 -46 -40 -33 -39 -32 -31 0
-31 -32 -34 -35 -36 -37 -39 -41 -42 -43 -44 -47 -48 -49 -50 -57 -58 -59 -61 -62 -64 0
-37 -36 -35 -34 -32 -31 -64 -62 -59 -50 -44 -61 -58 -49 -43 -57 -48 -42 -47 -41 -39 0
-31 -44 -43 -42 -41 -39 -37 -36 -35 -34 -32 -64 -62 -59 -50 -61 -58 -49 -57 -48 -47 0
-39 -41 -42 -43 -44 -31 -47 -48 -49 -50 -32 -57 -58 -59 -34 -61 -62 -35 -64 -36 -37 0
-39 -32 -50 -49 -48 -47 -31 -44 -43 -42 -41 -37 -36 -35 -34 -64 -62 -59 -61 -58 -57 0
-47 -48 -49 -50 -32 -39 -57 -58 -59 -34 -41 -61 -62 -35 -42 -64 -36 -43 -37 -44 -31 0
-47 -41 -34 -59 -58 -57 -39 -32 -50 -49 -48 -31 -44 -43 -42 -37 -36 -35 -64 -62 -61 0
-57 -58 -59 -34 -41 -47 -61 -62 -35 -42 -48 -64 -36 -43 -49 -37 -44 -50 -31 -32 -39 0
-57 -48 -42 -35 -62 -61 -47 -41 -34 -59 -58 -39 -32 -50 -49 -31 -44 -43 -37 -36 -64 0
-61 -62 -35 -42 -48 -57 -64 -36 -43 -49 -58 -37 -44 -50 -59 -31 -32 -34 -39 -41 -47 0
-61 -58 -49 -43 -36 -64 -57 -48 -42 -35 -62 -47 -41 -34 -59 -39 -32 -50 -31 -44 -37 0
-64 -36 -43 -49 -58 -61 -37 -44 -50 -59 -62 -31 -32 -34 -35 -39 -41 -42 -47 -48 -57 0
-37 -44 -50 -59 -62 -64 -31 -32 -34 -35 -36 -39 -41 -42 -43 -47 -48 -49 -57 -58 -61 0
-64 -62 -59 -50 -44 -37 -61 -58 -49 -43 -36 -57 -48 -42 -35 -47 -41 -34 -39 -32 -31 0
-31 -32 -34 -35 -36 -38 -39 -41 -42 -43 -45 -47 -48 -49 -51 -57 -58 -60 -61 -63 -65 0
-38 -36 -35 -34 -32 -31 -65 -63 -60 -51 -45 -61 -58 -49 -43 -57 -48 -42 -47 -41 -39 0
-31 -45 -43 -42 -41 -39 -38 -36 -35 -34 -32 -65 -63 -60 -51 -61 -58 -49 -57 -48 -47 0
-39 -41 -42 -43 -45 -31 -47 -48 -49 -51 -32 -57 -58 -60 -34 -61 -63 -35 -65 -36 -38 0
-39 -32 -51 -49 -48 -47 -31 -45 -43 -42 -41 -38 -36 -35 -34 -65 -63 -60 -61 -58 -57 0
-47 -48 -49 -51 -32 -39 -57 -58 -60 -34 -41 -61 -63 -35 -42 -65 -36 -43 -38 -45 -31 0
-47 -41 -34 -60 -58 -57 -39 -32 -51 -49 -48 -31 -45 -43 -42 -38 -36 -35 -65 -63 -61 0
-57 -58 -60 -34 -41 -47 -61 -63 -35 -42 -48 -65 -36 -43 -49 -38 -45 -51 -31 -32 -39 0
-57 -48 -42 -35 -63 -61 -47 -41 -34 -60 -58 -39 -32 -51 -49 -31 -45 -43 -38 -36 -65 0
-61 -63 -35 -42 -48 -57 -65 -36 -43 -49 -58 -38 -45 -51 -60 -31 -32 -34 -39 -41 -47 0
-61 -58 -49 -43 -36 -65 -57 -48 -42 -35 -63 -47 -41 -34 -60 -39 -32 -51 -31 -45 -38 0
-65 -36 -43 -49 -58 -61 -38 -45 -51 -60 -63 -31 -32 -34 -35 -39 -41 -42 -47 -48 -57 0
-38 -45 -51 -60 -63 -65 -31 -32 -34 -35 -36 -39 -41 -42 -43 -47 -48 -49 -57 -58 -61 0
-65 -63 -60 -51 -45 -38 -61 -58 -49 -43 -36 -57 -48 -42 -35 -47 -41 -34 -39 -32 -31 0
-31 -32 -34 -35 -37 -38 -39 -41 -42 -44 -45 -47 -48 -50 -51 -57 -59 -60 -62 -63 -66 0
-38 -37 -35 -34 -32 -31 -66 -63 -60 -51 -45 -62 -59 -50 -44 -57 -48 -42 -47 -41 -39 0
-31 -45 -44 -42 -41 -39 -38 -37 -35 -34 -32 -66 -63 -60 -51 -62 -59 -50 -57 -48 -47 0
-39 -41 -42 -44 -45 -31 -47 -48 -50 -51 -32 -57 -59 -60 -34 -62 -63 -35 -66 -37 -38 0
-39 -32 -51 -50 -48 -47 -31 -45 -44 -42 -41 -38 -37 -35 -34 -66 -63 -60 -62 -59 -57 0
-47 -48 -50 -51 -32 -39 -57 -59 -60 -34 -41 -62 -63 -35 -42 -66 -37 -44 -38 -45 -31 0
-47 -41 -34 -60 -59 -57 -39 -32 -51 -50 -48 -31 -45 -44 -42 -38 -37 -35 -66 -63 -62 0
-57 -59 -60 -34 -41 -47 -62 -63 -35 -42 -48 -66 -37 -44 -50 -38 -45 -51 -31 -32 -39 0
-57 -48 -42 -35 -63 -62 -47 -41 -34 -60 -59 -39 -32 -51 -50 -31 -45 -44 -38 -37 -66 0
-62 -63 -35 -42 -48 -57 -66 -37 -44 -50 -59 -38 -45 -51 -60 -31 -32 -34 -39 -41 -47 0
-62 -59 -50 -44 -37 -66 -57 -48 -42 -35 -63 -47 -41 -34 -60 -39 -32 -51 -31 -45 -38 0
-66 -37 -44 -50 -59 -62 -38 -45 -51 -60 -63 -31 -32 -34 -35 -39 -41 -42 -47 -48 -57 0
-38 -45 -51 -60 -63 -66 -31 -32 -34 -35 -37 -39 -41 -42 -44 -47 -48 -50 -57 -59 -62 0
-66 -63 -60 -51 -45 -38 -62 -59 -50 -44 -37 -57 -48 -42 -35 -47 -41 -34 -39 -32 -31 0
-31 -32 -34 -36 -37 -38 -39 -41 -43 -44 -45 -47 -49 -50 -51 -58 -59 -60 -64 -65 -66 0
-38 -37 -36 -34 -32 -31 -66 -65 -60 -51 -45 -64 -59 -50 -44 -58 -49 -43 -47 -41 -39 0
-31 -45 -44 -43 -41 -39 -38 -37 -36 -34 -32 -66 -65 -60 -51 -64 -59 -50 -58 -49 -47 0
-39 -41 -43 -44 -45 -31 -47 -49 -50 -51 -32 -58 -59 -60 -34 -64 -65 -36 -66 -37 -38 0
-39 -32 -51 -50 -49 -47 -31 -45 -44 -43 -41 -38 -37 -36 -34 -66 -65 -60 -64 -59 -58 0
-47 -49 -50 -51 -32 -39 -58 -59 -60 -34 -41 -64 -65 -36 -43 -66 -37 -44 -38 -45 -31 0
-47 -41 -34 -60 -59 -58 -39 -32 -51 -50 -49 -31 -45 -44 -43 -38 -37 -36 -66 -65 -64 0
-58 -59 -60 -34 -41 -47 -64 -65 -36 -43 -49 -66 -37 -44 -50 -38 -45 -51 -31 -32 -39 0
-58 -49 -43 -36 -65 -64 -47 -41 -34 -60 -59 -39 -32 -51 -50 -31 -45 -44 -38 -37 -66 0
-64 -65 -36 -43 -49 -58 -66 -37 -44 -50 -59 -38 -45 -51 -60 -31 -32 -34 -39 -41 -47 0
-64 -59 -50 -44 -37 -66 -58 -49 -43 -36 -65 -47 -41 -34 -60 -39 -32 -51 -31 -45 -38 0
-66 -37 -44 -50 -59 -64 -38 -45 -51 -60 -65 -31 -32 -34 -36 -39 -41 -43 -47 -49 -58 0
-38 -45 -51 -60 -65 -66 -31 -32 -34 -36 -37 -39 -41 -43 -44 -47 -49 -50 -58 -59 -64 0
-66 -65 -60 -51 -45 -38 -64 -59 -50 -44 -37 -58 -49 -43 -36 -47 -41 -34 -39 -32 -31 0
-31 -32 -35 -36 -37 -38 -39 -42 -43 -44 -45 -48 -49 -50 -51 -61 -62 -63 -64 -65 -66 0
-38 -37 -36 -35 -32 -31 -66 -65 -63 -51 -45 -64 -62 -50 -44 -61 -49 -43 -48 -42 -39 0
-31 -45 -44 -43 -42 -39 -38 -37 -36 -35 -32 -66 -65 -63 -51 -64 -62 -50 -61 -49 -48 0
-39 -42 -43 -44 -45 -31 -48 -49 -50 -51 -32 -61 -62 -63 -35 -64 -65 -36 -66 -37 -38 0
-39 -32 -51 -50 -49 -48 -31 -45 -44 -43 -42 -38 -37 -36 -35 -66 -65 -63 -64 -62 -61 0
-48 -49 -50 -51 -32 -39 -61 -62 -63 -35 -42 -64 -65 -36 -43 -66 -37 -44 -38 -45 -31 0
-48 -42 -35 -63 -62 -61 -39 -32 -51 -50 -49 -31 -45 -44 -43 -38 -37 -36 -66 -65 -64 0
-61 -62 -63 -35 -42 -48 -64 -65 -36 -43 -49 -66 -37 -44 -50 -38 -45 -51 -31 -32 -39 0
-61 -49 -43 -36 -65 -64 -48 -42 -35 -63 -62 -39 -32 -51 -50 -31 -45 -44 -38 -37 -66 0
-64 -65 -36 -43 -49 -61 -66 -37 -44 -50 -62 -38 -45 -51 -63 -31 -32 -35 -39 -42 -48 0
-64 -62 -50 -44 -37 -66 -61 -49 -43 -36 -65 -48 -42 -35 -63 -39 -32 -51 -31 -45 -38 0
-66 -37 -44 -50 -62 -64 -38 -45 -51 -63 -65 -31 -32 -35 -36 -39 -42 -43 -48 -49 -61 0
-38 -45 -51 -63 -65 -66 -31 -32 -35 -36 -37 -39 -42 -43 -44 -48 -49 -50 -61 -62 -64 0
-66 -65 -63 -51 -45 -38 -64 -62 -50 -44 -37 -61 -49 -43 -36 -48 -42 -35 -39 -32 -31 0
-31 -33 -34 -35 -36 -37 -40 -41 -42 -43 -44 -52 -53 -54 -55 -57 -58 -59 -61 -62 -64 0
-37 -36 -35 -34 -33 -31 -64 -62 -59 -55 -44 -61 -58 -54 -43 -57 -53 -42 -52 -41 -40 0
-31 -44 -43 -42 -41 -40 -37 -36 -35 -34 -33 -64 -62 -59 -55 -61 -58 -54 -57 -53 -52 0
-40 -41 -42 -43 -44 -31 -52 -53 -54 -55 -33 -57 -58 -59 -34 -61 -62 -35 -64 -36 -37 0
-40 -33 -55 -54 -53 -52 -31 -44 -43 -42 -41 -37 -36 -35 -34 -64 -62 -59 -61 -58 -57 0
-52 -53 -54 -55 -33 -40 -57 -58 -59 -34 -41 -61 -62 -35 -42 -64 -36 -43 -37 -44 -31 0
-52 -41 -34 -59 -58 -57 -40 -33 -55 -54 -53 -31 -44 -43 -42 -37 -36 -35 -64 -62 -61 0
-57 -58 -59 -34 -41 -52 -61 -62 -35 -42 -53 -64 -36 -43 -54 -37 -44 -55 -31 -33 -40 0
-57 -53 -42 -35 -62 -61 -52 -41 -34 -59 -58 -40 -33 -55 -54 -31 -44 -43 -37 -36 -64 0
-61 -62 -35 -42 -53 -57 -64 -36 -43 -54 -58 -37 -44 -55 -59 -31 -33 -34 -40 -41 -52 0
-61 -58 -54 -43 -36 -64 -57 -53 -42 -35 -62 -52 -41 -34 -59 -40 -33 -55 -31 -44 -37 0
-64 -36 -43 -54 -58 -61 -37 -44 -55 -59 -62 -31 -33 -34 -35 -40 -41 -42 -52 -53 -57 0
-37 -44 -55 -59 -62 -64 -31 -33 -34 -35 -36 -40 -41 -42 -43 -52 -53 -54 -57 -58 -61 0
-64 -62 -59 -55 -44 -37 -61 -58 -54 -43 -36 -57 -53 -42 -35 -52 -41 -34 -40 -33 -31 0
-31 -33 -34 -35 -36 -38 -40 -41 -42 -43 -45 -52 -53 -54 -56 -57 -58 -60 -61 -63 -65 0
-38 -36 -35 -34 -33 -31 -65 -63 -60 -56 -45 -61 -58 -54 -43 -57 -53 -42 -52 -41 -40 0
-31 -45 -43 -42 -41 -40 -38 -36 -35 -34 -33 -65 -63 -60 -56 -61 -58 -54 -57 -53 -52 0
-40 -41 -42 -43 -45 -31 -52 -53 -54 -56 -33 -57 -58 -60 -34 -61 -63 -35 -65 -36 -38 0
-40 -33 -56 -54 -53 -52 -31 -45 -43 -42 -41 -38 -36 -35 -34 -65 -63 -60 -61 -58 -57 0
-52 -53 -54 -56 -33 -40 -57 -58 -60 -34 -41 -61 -63 -35 -42 -65 -36 -43 -38 -45 -31 0
-52 -41 -34 -60 -58 -57 -40 -33 -56 -54 -53 -31 -45 -43 -42 -38 -36 -35 -65 -63 -61 0
-57 -58 -60 -34 -41 -52 -61 -63 -35 -42 -53 -65 -36 -43 -54 -38 -45 -56 -31 -33 -40 0
-57 -53 -42 -35 -63 -61 -52 -41 -34 -60 -58 -40 -33 -56 -54 -31 -45 -43 -38 -36 -65 0
-61 -63 -35 -42 -53 -57 -65 -36 -43 -54 -58 -38 -45 -56 -60 -31 -33 -34 -40 -41 -52 0
-61 -58 -54 -43 -36 -65 -57 -53 -42 -35 -63 -52 -41 -34 -60 -40 -33 -56 -31 -45 -38 0
-65 -36 -43 -54 -58 -61 -38 -45 -56 -60 -63 -31 -33 -34 -35 -40 -41 -42 -52 -53 -57 0
-38 -45 -56 -60 -63 -65 -31 -33 -34 -35 -36 -40 -41 -42 -43 -52 -53 -54 -57 -58 -61 0
-65 -63 -60 -56 -45 -38 -61 -58 -54 -43 -36 -57 -53 -42 -35 -52 -41 -34 -40 -33 -31 0
-31 -33 -34 -35 -37 -38 -40 -41 -42 -44 -45 -52 -53 -55 -56 -57 -59 -60 -62 -63 -66 0
-38 -37 -35 -34 -33 -31 -66 -63 -60 -56 -45 -62 -59 -55 -44 -57 -53 -42 -52 -41 -40 0
-31 -45 -44 -42 -41 -40 -38 -37 -35 -34 -33 -66 -63 -60 -56 -62 -59 -55 -57 -53 -52 0
-40 -41 -42 -44 -45 -31 -52 -53 -55 -56 -33 -57 -59 -60 -34 -62 -63 -35 -66 -37 -38 0
-40 -33 -56 -55 -53 -52 -31 -45 -44 -42 -41 -38 -37 -35 -34 -66 -63 -60 -62 -59 -57 0
-52 -53 -55 -56 -33 -40 -57 -59 -60 -34 -41 -62 -63 -35 -42 -66 -37 -44 -38 -45 -31 0
-52 -41 -34 -60 -59 -57 -40 -33 -56 -55 -53 -31 -45 -44 -42 -38 -37 -35 -66 -63 -62 0
-57 -59 -60 -34 -41 -52 -62 -63 -35 -42 -53 -66 -37 -44 -55 -38 -45 -56 -31 -33 -40 0
-57 -53 -42 -35 -63 -62 -52 -41 -34 -60 -59 -40 -33 -56 -55 -31 -45 -44 -38 -37 -66 0
-62 -63 -35 -42 -53 -57 -66 -37 -44 -55 -59 -38 -45 -56 -60 -31 -33 -34 -40 -41 -52 0
-62 -59 -55 -44 -37 -66 -57 -53 -42 -35 -63 -52 -41 -34 -60 -40 -33 -56 -31 -45 -38 0
-66 -37 -44 -55 -59 -62 -38 -45 -56 -60 -63 -31 -33 -34 -35 -40 -41 -42 -52 -53 -57 0
-38 -45 -56 -60 -63 -66 -31 -33 -34 -35 -37 -40 -41 -42 -44 -52 -53 -55 -57 -59 -62 0
-66 -63 -60 -56 -45 -38 -62 -59 -55 -44 -37 -57 -53 -42 -35 -52 -41 -34 -40 -33 -31 0
-31 -33 -34 -36 -37 -38 -40 -41 -43 -44 -45 -52 -54 -55 -56 -58 -59 -60 -64 -65 -66 0
-38 -37 -36 -34 -33 -31 -66 -65 -60 -56 -45 -64 -59 -55 -44 -58 -54 -43 -52 -41 -40 0
-31 -45 -44 -43 -41 -40 -38 -37 -36 -34 -33 -66 -65 -60 -56 -64 -59 -55 -58 -54 -52 0
-40 -41 -43 -44 -45 -31 -52 -54 -55 -56 -33 -58 -59 -60 -34 -64 -65 -36 -66 -37 -38 0
-40 -33 -56 -55 -54 -52 -31 -45 -44 -43 -41 -38 -37 -36 -34 -66 -65 -60 -64 -59 -58 0
-52 -54 -55 -56 -33 -40 -58 -59 -60 -34 -41 -64 -65 -36 -43 -66 -37 -44 -38 -45 -31 0
-52 -41 -34 -60 -59 -58 -40 -33 -56 -55 -54 -31 -45 -44 -43 -38 -37 -36 -66 -65 -64 0
-58 -59 -60 -34 -41 -52 -64 -65 -36 -43 -54 -66 -37 -44 -55 -38 -45 -56 -31 -33 -40 0
-58 -54 -43 -36 -65 -64 -52 -41 -34 -60 -59 -40 -33 -56 -55 -31 -45 -44 -38 -37 -66 0
-64 -65 -36 -43 -54 -58 -66 -37 -44 -55 -59 -38 -45 -56 -60 -31 -33 -34 -40 -41 -52 0
-64 -59 -55 -44 -37 -66 -58 -54 -43 -36 -65 -52 -41 -34 -60 -40 -33 -56 -31 -45 -38 0
-66 -37 -44 -55 -59 -64 -38 -45 -56 -60 -65 -31 -33 -34 -36 -40 -41 -43 -52 -54 -58 0
-38 -45 -56 -60 -65 -66 -31 -33 -34 -36 -37 -40 -41 -43 -44 -52 -54 -55 -58 -59 -64 0
-66 -65 -60 -56 -45 -38 -64 -59 -55 -44 -37 -58 -54 -43 -36 -52 -41 -34 -40 -33 -31 0
-31 -33 -35 -36 -37 -38 -40 -42 -43 -44 -45 -53 -54 -55 -56 -61 -62 -63 -64 -65 -66 0
-38 -37 -36 -35 -33 -31 -66 -65 -63 -56 -45 -64 -62 -55 -44 -61 -54 -43 -53 -42 -40 0
-31 -45 -44 -43 -42 -40 -38 -37 -36 -35 -33 -66 -65 -63 -56 -64 -62 -55 -61 -54 -53 0
-40 -42 -43 -44 -45 -31 -53 -54 -55 -56 -33 -61 -62 -63 -35 -64 -65 -36 -66 -37 -38 0
-40 -33 -56 -55 -54 -53 -31 -45 -44 -43 -42 -38 -37 -36 -35 -66 -65 -63 -64 -62 -61 0
-53 -54 -55 -56 -33 -40 -61 -62 -63 -35 -42 -64 -65 -36 -43 -66 -37 -44 -38 -45 -31 0
-53 -42 -35 -63 -62 -61 -40 -33 -56 -55 -54 -31 -45 -44 -43 -38 -37 -36 -66 -65 -64 0
-61 -62 -63 -35 -42 -53 -64 -65 -36 -43 -54 -66 -37 -44 -55 -38 -45 -56 -31 -33 -40 0
-61 -54 -43 -36 -65 -64 -53 -42 -35 -63 -62 -40 -33 -56 -55 -31 -45 -44 -38 -37 -66 0
-64 -65 -36 -43 -54 -61 -66 -37 -44 -55 -62 -38 -45 -56 -63 -31 -33 -35 -40 -42 -53 0
-64 -62 -55 -44 -37 -66 -61 -54 -43 -36 -65 -53 -42 -35 -63 -40 -33 -56 -31 -45 -38 0
-66 -37 -44 -55 -62 -64 -38 -45 -56 -63 -65 -31 -33 -35 -36 -40 -42 -43 -53 -54 -61 0
-38 -45 -56 -63 -65 -66 -31 -33 -35 -36 -37 -40 -42 -43 -44 -53 -54 -55 -61 -62 -64 0
-66 -65 -63 -56 -45 -38 -64 -62 -55 -44 -37 -61 -54 -43 -36 -53 -42 -35 -40 -33 -31 0
-31 -34 -35 -36 -37 -38 -41 -42 -43 -44 -45 -57 -58 -59 -60 -61 -62 -63 -64 -65 -66 0
-38 -37 -36 -35 -34 -31 -66 -65 -63 -60 -45 -64 -62 -59 -44 -61 -58 -43 -57 -42 -41 0
-31 -45 -44 -43 -42 -41 -38 -37 -36 -35 -34 -66 -65 -63 -60 -64 -62 -59 -61 -58 -57 0
-41 -42 -43 -44 -45 -31 -57 -58 -59 -60 -34 -61 -62 -63 -35 -64 -65 -36 -66 -37 -38 0
-41 -34 -60 -59 -58 -57 -31 -45 -44 -43 -42 -38 -37 -36 -35 -66 -65 -63 -64 -62 -61 0
-57 -58 -59 -60 -34 -41 -61 -62 -63 -35 -42 -64 -65 -36 -43 -66 -37 -44 -38 -45 -31 0
-57 -42 -35 -63 -62 -61 -41 -34 -60 -59 -58 -31 -45 -44 -43 -38 -37 -36 -66 -65 -64 0
-61 -62 -63 -35 -42 -57 -64 -65 -36 -43 -58 -66 -37 -44 -59 -38 -45 -60 -31 -34 -41 0
-61 -58 -43 -36 -65 -64 -57 -42 -35 -63 -62 -41 -34 -60 -59 -31 -45 -44 -38 -37 -66 0
-64 -65 -36 -43 -58 -61 -66 -37 -44 -59 -62 -38 -45 -60 -63 -31 -34 -35 -41 -42 -57 0
-64 -62 -59 -44 -37 -66 -61 -58 -43 -36 -65 -57 -42 -35 -63 -41 -34 -60 -31 -45 -38 0
-66 -37 -44 -59 -62 -64 -38 -45 -60 -63 -65 -31 -34 -35 -36 -41 -42 -43 -57 -58 -61 0
-38 -45 -60 -63 -65 -66 -31 -34 -35 -36 -37 -41 -42 -43 -44 -57 -58 -59 -61 -62 -64 0
-66 -65 -63 -60 -45 -38 -64 -62 -59 -44 -37 -61 -58 -43 -36 -57 -42 -35 -41 -34 -31 0
-32 -33 -34 -35 -36 -37 -46 -47 -48 -49 -50 -52 -53 -54 -55 -57 -58 -59 -61 -62 -64 0
-37 -36 -35 -34 -33 -32 -64 -62 -59 -55 -50 -61 -58 -54 -49 -57 -53 -48 -52 -47 -46 0
-32 -50 -49 -48 -47 -46 -37 -36 -35 -34 -33 -64 -62 -59 -55 -61 -58 -54 -57 -53 -52 0
-46 -47 -48 -49 -50 -32 -52 -53 -54 -55 -33 -57 -58 -59 -34 -61 -62 -35 -64 -36 -37 0
-46 -33 -55 -54 -53 -52 -32 -50 -49 -48 -47 -37 -36 -35 -34 -64 -62 -59 -61 -58 -57 0
-52 -53 -54 -55 -33 -46 -57 -58 -59 -34 -47 -61 -62 -35 -48 -64 -36 -49 -37 -50 -32 0
-52 -47 -34 -59 -58 -57 -46 -33 -55 -54 -53 -32 -50 -49 -48 -37 -36 -35 -64 -62 -61 0
-57 -58 -59 -34 -47 -52 -61 -62 -35 -48 -53 -64 -36 -49 -54 -37 -50 -55 -32 -33 -46 0
-57 -53 -48 -35 -62 -61 -52 -47 -34 -59 -58 -46 -33 -55 -54 -32 -50 -49 -37 -36 -64 0
-61 -62 -35 -48 -53 -57 -64 -36 -49 -54 -58 -37 -50 -55 -59 -32 -33 -34 -46 -47 -52 0
-61 -58 -54 -49 -36 -64 -57 -53 -48 -35 -62 -52 -47 -34 -59 -46 -33 -55 -32 -50 -37 0
-64 -36 -49 -54 -58 -61 -37 -50 -55 -59 -62 -32 -33 -34 -35 -46 -47 -48 -52 -53 -57 0
-37 -50 -55 -59 -62 -64 -32 -33 -34 -35 -36 -46 -47 -48 -49 -52 -53 -54 -57 -58 -61 0
-64 -62 -59 -55 -50 -37 -61 -58 -54 -49 -36 -57 -53 -48 -35 -52 -47 -34 -46 -33 -32 0
-32 -33 -34 -35 -36 -38 -46 -47 -48 -49 -51 -52 -53 -54 -56 -57 -58 -60 -61 -63 -65 0
-38 -36 -35 -34 -33 -32 -65 -63 -60 -56 -51 -61 -58 -54 -49 -57 -53 -48 -52 -47 -46 0
-32 -51 -49 -48 -47 -46 -38 -36 -35 -34 -33 -65 -63 -60 -56 -61 -58 -54 -57 -53 -52 0
-46 -47 -48 -49 -51 -32 -52 -53 -54 -56 -33 -57 -58 -60 -34 -61 -63 -35 -65 -36 -38 0
-46 -33 -56 -54 -53 -52 -32 -51 -49 -48 -47 -38 -36 -35 -34 -65 -63 -60 -61 -58 -57 0
-52 -53 -54 -56 -33 -46 -57 -58 -60 -34 -47 -61 -63 -35 -48 -65 -36 -49 -38 -51 -32 0
-52 -47 -34 -60 -58 -57 -46 -33 -56 -54 -53 -32 -51 -49 -48 -38 -36 -35 -65 -63 -61 0
-57 -58 -60 -34 -47 -52 -61 -63 -35 -48 -53 -65 -36 -49 -54 -38 -51 -56 -32 -33 -46 0
-57 -53 -48 -35 -63 -61 -52 -47 -34 -60 -58 -46 -33 -56 -54 -32 -51 -49 -38 -36 -65 0
-61 -63 -35 -48 -53 -57 -65 -36 -49 -54 -58 -38 -51 -56 -60 -32 -33 -34 -46 -47 -52 0
-61 -58 -54 -49 -36 -65 -57 -53 -48 -35 -63 -52 -47 -34 -60 -46 -33 -56 -32 -51 -38 0
-65 -36 -49 -54 -58 -61 -38 -51 -56 -60 -63 -32 -33 -34 -35 -46 -47 -48 -52 -53 -57 0
-38 -51 -56 -60 -63 -65 -32 -33 -34 -35 -36 -46 -47 -48 -49 -52 -53 -54 -57 -58 -61 0
-65 -63 -60 -56 -51 -38 -61 -58 -54 -49 -36 -57 -53 -48 -35 -52 -47 -34 -46 -33 -32 0
-32 -33 -34 -35 -37 -38 -46 -47 -48 -50 -51 -52 -53 -55 -56 -57 -59 -60 -62 -63 -66 0
-38 -37 -35 -34 -33 -32 -66 -63 -60 -56 -51 -62 -59 -55 -50 -57 -53 -48 -52 -47 -46 0
-32 -51 -50 -48 -47 -46 -38 -37 -35 -34 -33 -66 -63 -60 -56 -62 -59 -55 -57 -53 -52 0
-46 -47 -48 -50 -51 -32 -52 -53 -55 -56 -33 -57 -59 -60 -34 -62 -63 -35 -66 -37 -38 0
-46 -33 -56 -55 -53 -52 -32 -51 -50 -48 -47 -38 -37 -35 -34 -66 -63 -60 -62 -59 -57 0
-52 -53 -55 -56 -33 -46 -57 -59 -60 -34 -47 -62 -63 -35 -48 -66 -37 -50 -38 -51 -32 0
-52 -47 -34 -60 -59 -57 -46 -33 -56 -55 -53 -32 -51 -50 -48 -38 -37 -35 -66 -63 -62 0
-57 -59 -60 -34 -47 -52 -62 -63 -35 -48 -53 -66 -37 -50 -55 -38 -51 -56 -32 -33 -46 0
-57 -53 -48 -35 -63 -62 -52 -47 -34 -60 -59 -46 -33 -56 -55 -32 -51 -50 -38 -37 -66 0
-62 -63 -35 -48 -53 -57 -66 -37 -50 -55 -59 -38 -51 -56 -60 -32 -33 -34 -46 -47 -52 0
-62 -59 -55 -50 -37 -66 -57 -53 -48 -35 -63 -52 -47 -34 -60 -46 -33 -56 -32 -51 -38 0
-66 -37 -50 -55 -59 -62 -38 -51 -56 -60 -63 -32 -33 -34 -35 -46 -47 -48 -52 -53 -57 0
-38 -51 -56 -60 -63 -66 -32 -33 -34 -35 -37 -46 -47 -48 -50 -52 -53 -55 -57 -59 -62 0
-66 -63 -60 -56 -51 -38 -62 -59 -55 -50 -37 -57 -53 -48 -35 -52 -47 -34 -46 -33 -32 0
-32 -33 -34 -36 -37 -38 -46 -47 -49 -50 -51 -52 -54 -55 -56 -58 -59 -60 -64 -65 -66 0
-38 -37 -36 -34 -33 -32 -66 -65 -60 -56 -51 -64 -59 -55 -50 -58 -54 -49 -52 -47 -46 0
-32 -51 -50 -49 -47 -46 -38 -37 -36 -34 -33 -66 -65 -60 -56 -64 -59 -55 -58 -54 -52 0
-46 -47 -49 -50 -51 -32 -52 -54 -55 -56 -33 -58 -59 -60 -34 -64 -65 -36 -66 -37 -38 0
-46 -33 -56 -55 -54 -52 -32 -51 -50 -49 -47 -38 -37 -36 -34 -66 -65 -60 -64 -59 -58 0
-52 -54 -55 -56 -33 -46 -58 -59 -60 -34 -47 -64 -65 -36 -49 -66 -37 -50 -38 -51 -32 0
-52 -47 -34 -60 -59 -58 -46 -33 -56 -55 -54 -32 -51 -50 -49 -38 -37 -36 -66 -65 -64 0
-58 -59 -60 -34 -47 -52 -64 -65 -36 -49 -54 -66 -37 -50 -55 -38 -51 -56 -32 -33 -46 0
-58 -54 -49 -36 -65 -64 -52 -47 -34 -60 -59 -46 -33 -56 -55 -32 -51 -50 -38 -37 -66 0
-64 -65 -36 -49 -54 -58 -66 -37 -50 -55 -59 -38 -51 -56 -60 -32 -33 -34 -46 -47 -52 0
-64 -59 -55 -50 -37 -66 -58 -54 -49 -36 -65 -52 -47 -34 -60 -46 -33 -56 -32 -51 -38 0
-66 -37 -50 -55 -59 -64 -38 -51 -56 -60 -65 -32 -33 -34 -36 -46 -47 -49 -52 -54 -58 0
-38 -51 -56 -60 -65 -66 -32 -33 -34 -36 -37 -46 -47 -49 -50 -52 -54 -55 -58 -59 -64 0
-66 -65 -60 -56 -51 -38 -64 -59 -55 -50 -37 -58 -54 -49 -36 -52 -47 -34 -46 -33 -32 0
-32 -33 -35 -36 -37 -38 -46 -48 -49 -50 -51 -53 -54 -55 -56 -61 -62 -63 -64 -65 -66 0
-38 -37 -36 -35 -33 -32 -66 -65 -63 -56 -51 -64 -62 -55 -50 -61 -54 -49 -53 -48 -46 0
-32 -51 -50 -49 -48 -46 -38 -37 -36 -35 -33 -66 -65 -63 -56 -64 -62 -55 -61 -54 -53 0
-46 -48 -49 -50 -51 -32 -53 -54 -55 -56 -33 -61 -62 -63 -35 -64 -65 -36 -66 -37 -38 0
-46 -33 -56 -55 -54 -53 -32 -51 -50 -49 -48 -38 -37 -36 -35 -66 -65 -63 -64 -62 -61 0
-53 -54 -55 -56 -33 -46 -61 -62 -63 -35 -48 -64 -65 -36 -49 -66 -37 -50 -38 -51 -32 0
-53 -48 -35 -63 -62 -61 -46 -33 -56 -55 -54 -32 -51 -50 -49 -38 -37 -36 -66 -65 -64 0
-61 -62 -63 -35 -48 -53 -64 -65 -36 -49 -54 -66 -37 -50 -55 -38 -51 -56 -32 -33 -46 0
-61 -54 -49 -36 -65 -64 -53 -48 -35 -63 -62 -46 -33 -56 -55 -32 -51 -50 -38 -37 -66 0
-64 -65 -36 -49 -54 -61 -66 -37 -50 -55 -62 -38 -51 -56 -63 -32 -33 -35 -46 -48 -53 0
-64 -62 -55 -50 -37 -66 -61 -54 -49 -36 -65 -53 -48 -35 -63 -46 -33 -56 -32 -51 -38 0
-66 -37 -50 -55 -62 -64 -38 -51 -56 -63 -65 -32 -33 -35 -36 -46 -48 -49 -53 -54 -61 0
-38 -51 -56 -63 -65 -66 -32 -33 -35 -36 -37 -46 -48 -49 -50 -53 -54 -55 -61 -62 -64 0
-66 -65 -63 -56 -51 -38 -64 -62 -55 -50 -37 -61 -54 -49 -36 -53 -48 -35 -46 -33 -32 0
-32 -34 -35 -36 -37 -38 -47 -48 -49 -50 -51 -57 -58 -59 -60 -61 -62 -63 -64 -65 -66 0
-38 -37 -36 -35 -34 -32 -66 -65 -63 -60 -51 -64 -62 -59 -50 -61 -58 -49 -57 -48 -47 0
-32 -51 -50 -49 -48 -47 -38 -37 -36 -35 -34 -66 -65 -63 -60 -64 -62 -59 -61 -58 -57 0
-47 -48 -49 -50 -51 -32 -57 -58 -59 -60 -34 -61 -62 -63 -35 -64 -65 -36 -66 -37 -38 0
-47 -34 -60 -59 -58 -57 -32 -51 -50 -49 -48 -38 -37 -36 -35 -66 -65 -63 -64 -62 -61 0
-57 -58 -59 -60 -34 -47 -61 -62 -63 -35 -48 -64 -65 -36 -49 -66 -37 -50 -38 -51 -32 0
-57 -48 -35 -63 -62 -61 -47 -34 -60 -59 -58 -32 -51 -50 -49 -38 -37 -36 -66 -65 -64 0
-61 -62 -63 -35 -48 -57 -64 -65 -36 -49 -58 -66 -37 -50 -59 -38 -51 -60 -32 -34 -47 0
-61 -58 -49 -36 -65 -64 -57 -48 -35 -63 -62 -47 -34 -60 -59 -32 -51 -50 -38 -37 -66 0
-64 -65 -36 -49 -58 -61 -66 -37 -50 -59 -62 -38 -51 -60 -63 -32 -34 -35 -47 -48 -57 0
-64 -62 -59 -50 -37 -66 -61 -58 -49 -36 -65 -57 -48 -35 -63 -47 -34 -60 -32 -51 -38 0
-66 -37 -50 -59 -62 -64 -38 -51 -60 -63 -65 -32 -34 -35 -36 -47 -48 -49 -57 -58 -61 0
-38 -51 -60 -63 -65 -66 -32 -34 -35 -36 -37 -47 -48 -49 -50 -57 -58 -59 -61 -62 -64 0
-66 -65 -63 -60 -51 -38 -64 -62 -59 -50 -37 -61 -58 -49 -36 -57 -48 -35 -47 -34 -32 0
-33 -34 -35 -36 -37 -38 -52 -53 -54 -55 -56 -57 -58 -59 -60 -61 -62 -63 -64 -65 -66 0
-38 -37 -36 -35 -34 -33 -66 -65 -63 -60 -56 -64 -62 -59 -55 -61 -58 -54 -57 -53 -52 0
-33 -56 -55 -54 -53 -52 -38 -37 -36 -35 -34 -66 -65 -63 -60 -64 -62 -59 -61 -58 -57 0
-52 -53 -54 -55 -56 -33 -57 -58 -59 -60 -34 -61 -62 -63 -35 -64 -65 -36 -66 -37 -38 0
-52 -34 -60 -59 -58 -57 -33 -56 -55 -54 -53 -38 -37 -36 -35 -66 -65 -63 -64 -62 -61 0
-57 -58 -59 -60 -34 -52 -61 -62 -63 -35 -53 -64 -65 -36 -54 -66 -37 -55 -38 -56 -33 0
-57 -53 -35 -63 -62 -61 -52 -34 -60 -59 -58 -33 -56 -55 -54 -38 -37 -36 -66 -65 -64 0
-61 -62 -63 -35 -53 -57 -64 -65 -36 -54 -58 -66 -37 -55 -59 -38 -56 -60 -33 -34 -52 0
-61 -58 -54 -36 -65 -64 -57 -53 -35 -63 -62 -52 -34 -60 -59 -33 -56 -55 -38 -37 -66 0
-64 -65 -36 -54 -58 -61 -66 -37 -55 -59 -62 -38 -56 -60 -63 -33 -34 -35 -52 -53 -57 0
-64 -62 -59 -55 -37 -66 -61 -58 -54 -36 -65 -57 -53 -35 -63 -52 -34 -60 -33 -56 -38 0
-66 -37 -55 -59 -62 -64 -38 -56 -60 -63 -65 -33 -34 -35 -36 -52 -53 -54 -57 -58 -61 0
-38 -56 -60 -63 -65 -66 -33 -34 -35 -36 -37 -52 -53 -54 -55 -57 -58 -59 -61 -62 -64 0
-66 -65 -63 -60 -56 -38 -64 -62 -59 -55 -37 -61 -58 -54 -36 -57 -53 -35 -52 -34 -33 0
-39 -40 -41 -42 -43 -44 -46 -47 -48 -49 -50 -52 -53 -54 -55 -57 -58 -59 -61 -62 -64 0
-44 -43 -42 -41 -40 -39 -64 -62 -59 -55 -50 -61 -58 -54 -49 -57 -53 -48 -52 -47 -46 0
-39 -50 -49 -48 -47 -46 -44 -43 -42 -41 -40 -64 -62 -59 -55 -61 -58 -54 -57 -53 -52 0
-46 -47 -48 -49 -50 -39 -52 -53 -54 -55 -40 -57 -58 -59 -41 -61 -62 -42 -64 -43 -44 0
-46 -40 -55 -54 -53 -52 -39 -50 -49 -48 -47 -44 -43 -42 -41 -64 -62 -59 -61 -58 -57 0
-52 -53 -54 -55 -40 -46 -57 -58 -59 -41 -47 -61 -62 -42 -48 -64 -43 -49 -44 -50 -39 0
-52 -47 -41 -59 -58 -57 -46 -40 -55 -54 -53 -39 -50 -49 -48 -44 -43 -42 -64 -62 -61 0
-57 -58 -59 -41 -47 -52 -61 -62 -42 -48 -53 -64 -43 -49 -54 -44 -50 -55 -39 -40 -46 0
-57 -53 -48 -42 -62 -61 -52 -47 -41 -59 -58 -46 -40 -55 -54 -39 -50 -49 -44 -43 -64 0
-61 -62 -42 -48 -53 -57 -64 -43 -49 -54 -58 -44 -50 -55 -59 -39 -40 -41 -46 -47 -52 0
-61 -58 -54 -49 -43 -64 -57 -53 -48 -42 -62 -52 -47 -41 -59 -46 -40 -55 -39 -50 -44 0
-64 -43 -49 -54 -58 -61 -44 -50 -55 -59 -62 -39 -40 -41 -42 -46 -47 -48 -52 -53 -57 0
-44 -50 -55 -59 -62 -64 -39 -40 -41 -42 -43 -46 -47 -48 -49 -52 -53 -54 -57 -58 -61 0
-64 -62 -59 -55 -50 -44 -61 -58 -54 -49 -43 -57 -53 -48 -42 -52 -47 -41 -46 -40 -39 0
-39 -40 -41 -42 -43 -45 -46 -47 -48 -49 -51 -52 -53 -54 -56 -57 -58 -60 -61 -63 -65 0
-45 -43 -42 -41 -40 -39 -65 -63 -60 -56 -51 -61 -58 -54 -49 -57 -53 -48 -52 -47 -46 0
-39 -51 -49 -48 -47 -46 -45 -43 -42 -41 -40 -65 -63 -60 -56 -61 -58 -54 -57 -53 -52 0
-46 -47 -48 -49 -51 -39 -52 -53 -54 -56 -40 -57 -58 -60 -41 -61 -63 -42 -65 -43 -45 0
-46 -40 -56 -54 -53 -52 -39 -51 -49 -48 -47 -45 -43 -42 -41 -65 -63 -60 -61 -58 -57 0
-52 -53 -54 -56 -40 -46 -57 -58 -60 -41 -47 -61 -63 -42 -48 -65 -43 -49 -45 -51 -39 0
-52 -47 -41 -60 -58 -57 -46 -40 -56 -54 -53 -39 -51 -49 -48 -45 -43 -42 -65 -63 -61 0
-57 -58 -60 -41 -47 -52 -61 -63 -42 -48 -53 -65 -43 -49 -54 -45 -51 -56 -39 -40 -46 0
-57 -53 -48 -42 -63 -61 -52 -47 -41 -60 -58 -46 -40 -56 -54 -39 -51 -49 -45 -43 -65 0
-61 -63 -42 -48 -53 -57 -65 -43 -49 -54 -58 -45 -51 -56 -60 -39 -40 -41 -46 -47 -52 0
-61 -58 -54 -49 -43 -65 -57 -53 -48 -42 -63 -52 -47 -41 -60 -46 -40 -56 -39 -51 -45 0
-65 -43 -49 -54 -58 -61 -45 -51 -56 -60 -63 -39 -40 -41 -42 -46 -47 -48 -52 -53 -57 0
-45 -51 -56 -60 -63 -65 -39 -40 -41 -42 -43 -46 -47 -48 -49 -52 -53 -54 -57 -58 -61 0
-65 -63 -60 -56 -51 -45 -61 -58 -54 -49 -43 -57 -53 -48 -42 -52 -47 -41 -46 -40 -39 0
-39 -40 -41 -42 -44 -45 -46 -47 -48 -50 -51 -52 -53 -55 -56 -57 -59 -60 -62 -63 -66 0
-45 -44 -42 -41 -40 -39 -66 -63 -60 -56 -51 -62 -59 -55 -50 -57 -53 -48 -52 -47 -46 0
-39 -51 -50 -48 -47 -46 -45 -44 -42 -41 -40 -66 -63 -60 -56 -62 -59 -55 -57 -53 -52 0
-46 -47 -48 -50 -51 -39 -52 -53 -55 -56 -40 -57 -59 -60 -41 -62 -63 -42 -66 -44 -45 0
-46 -40 -56 -55 -53 -52 -39 -51 -50 -48 -47 -45 -44 -42 -41 -66 -63 -60 -62 -59 -57 0
-52 -53 -55 -56 -40 -46 -57 -59 -60 -41 -47 -62 -63 -42 -48 -66 -44 -50 -45 -51 -39 0
-52 -47 -41 -60 -59 -57 -46 -40 -56 -55 -53 -39 -51 -50 -48 -45 -44 -42 -66 -63 -62 0
-57 -59 -60 -41 -47 -52 -62 -63 -42 -48 -53 -66 -44 -50 -55 -45 -51 -56 -39 -40 -46 0
-57 -53 -48 -42 -63 -62 -52 -47 -41 -60 -59 -46 -40 -56 -55 -39 -51 -50 -45 -44 -66 0
-62 -63 -42 -48 -53 -57 -66 -44 -50 -55 -59 -45 -51 -56 -60 -39 -40 -41 -46 -47 -52 0
-62 -59 -55 -50 -44 -66 -57 -53 -48 -42 -63 -52 -47 -41 -60 -46 -40 -56 -39 -51 -45 0
-66 -44 -50 -55 -59 -62 -45 -51 -56 -60 -63 -39 -40 -41 -42 -46 -47 -48 -52 -53 -57 0
-45 -51 -56 -60 -63 -66 -39 -40 -41 -42 -44 -46 -47 -48 -50 -52 -53 -55 -57 -59 -62 0
-66 -63 -60 -56 -51 -45 -62 -59 -55 -50 -44 -57 -53 -48 -42 -52 -47 -41 -46 -40 -39 0
-39 -40 -41 -43 -44 -45 -46 -47 -49 -50 -51 -52 -54 -55 -56 -58 -59 -60 -64 -65 -66 0
-45 -44 -43 -41 -40 -39 -66 -65 -60 -56 -51 -64 -59 -55 -50 -58 -54 -49 -52 -47 -46 0
-39 -51 -50 -49 -47 -46 -45 -44 -43 -41 -40 -66 -65 -60 -56 -64 -59 -55 -58 -54 -52 0
-46 -47 -49 -50 -51 -39 -52 -54 -55 -56 -40 -58 -59 -60 -41 -64 -65 -43 -66 -44 -45 0
-46 -40 -56 -55 -54 -52 -39 -51 -50 -49 -47 -45 -44 -43 -41 -66 -65 -60 -64 -59 -58 0
-52 -54 -55 -56 -40 -46 -58 -59 -60 -41 -47 -64 -65 -43 -49 -66 -44 -50 -45 -51 -39 0
-52 -47 -41 -60 -59 -58 -46 -40 -56 -55 -54 -39 -51 -50 -49 -45 -44 -43 -66 -65 -64 0
-58 -59 -60 -41 -47 -52 -64 -65 -43 -49 -54 -66 -44 -50 -55 -45 -51 -56 -39 -40 -46 0
-58 -54 -49 -43 -65 -64 -52 -47 -41 -60 -59 -46 -40 -56 -55 -39 -51 -50 -45 -44 -66 0
-64 -65 -43 -49 -54 -58 -66 -44 -50 -55 -59 -45 -51 -56 -60 -39 -40 -41 -46 -47 -52 0
-64 -59 -55 -50 -44 -66 -58 -54 -49 -43 -65 -52 -47 -41 -60 -46 -40 -56 -39 -51 -45 0
-66 -44 -50 -55 -59 -64 -45 -51 -56 -60 -65 -39 -40 -41 -43 -46 -47 -49 -52 -54 -58 0
-45 -51 -56 -60 -65 -66 -39 -40 -41 -43 -44 -46 -47 -49 -50 -52 -54 -55 -58 -59 -64 0
-66 -65 -60 -56 -51 -45 -64 -59 -55 -50 -44 -58 -54 -49 -43 -52 -47 -41 -46 -40 -39 0
-39 -40 -42 -43 -44 -45 -46 -48 -49 -50 -51 -53 -54 -55 -56 -61 -62 -63 -64 -65 -66 0
-45 -44 -43 -42 -40 -39 -66 -65 -63 -56 -51 -64 -62 -55 -50 -61 -54 -49 -53 -48 -46 0
-39 -51 -50 -49 -48 -46 -45 -44 -43 -42 -40 -66 -65 -63 -56 -64 -62 -55 -61 -54 -53 0
-46 -48 -49 -50 -51 -39 -53 -54 -55 -56 -40 -61 -62 -63 -42 -64 -65 -43 -66 -44 -45 0
-46 -40 -56 -55 -54 -53 -39 -51 -50 -49 -48 -45 -44 -43 -42 -66 -65 -63 -64 -62 -61 0
-53 -54 -55 -56 -40 -46 -61 -62 -63 -42 -48 -64 -65 -43 -49 -66 -44 -50 -45 -51 -39 0
-53 -48 -42 -63 -62 -61 -46 -40 -56 -55 -54 -39 -51 -50 -49 -45 -44 -43 -66 -65 -64 0
-61 -62 -63 -42 -48 -53 -64 -65 -43 -49 -54 -66 -44 -50 -55 -45 -51 -56 -39 -40 -46 0
-61 -54 -49 -43 -65 -64 -53 -48 -42 -63 -62 -46 -40 -56 -55 -39 -51 -50 -45 -44 -66 0
-64 -65 -43 -49 -54 -61 -66 -44 -50 -55 -62 -45 -51 -56 -63 -39 -40 -42 -46 -48 -53 0
-64 -62 -55 -50 -44 -66 -61 -54 -49 -43 -65 -53 -48 -42 -63 -46 -40 -56 -39 -51 -45 0
-66 -44 -50 -55 -62 -64 -45 -51 -56 -63 -65 -39 -40 -42 -43 -46 -48 -49 -53 -54 -61 0
-45 -51 -56 -63 -65 -66 -39 -40 -42 -43 -44 -46 -48 -49 -50 -53 -54 -55 -61 -62 -64 0
-66 -65 -63 -56 -51 -45 -64 -62 -55 -50 -44 -61 -54 -49 -43 -53 -48 -42 -46 -40 -39 0
-39 -41 -42 -43 -44 -45 -47 -48 -49 -50 -51 -57 -58 -59 -60 -61 -62 -63 -64 -65 -66 0
-45 -44 -43 -42 -41 -39 -66 -65 -63 -60 -51 -64 -62 -59 -50 -61 -58 -49 -57 -48 -47 0
-39 -51 -50 -49 -48 -47 -45 -44 -43 -42 -41 -66 -65 -63 -60 -64 -62 -59 -61 -58 -57 0
-47 -48 -49 -50 -51 -39 -57 -58 -59 -60 -41 -61 -62 -63 -42 -64 -65 -43 -66 -44 -45 0
-47 -41 -60 -59 -58 -57 -39 -51 -50 -49 -48 -45 -44 -43 -42 -66 -65 -63 -64 -62 -61 0
-57 -58 -59 -60 -41 -47 -61 -62 -63 -42 -48 -64 -65 -43 -49 -66 -44 -50 -45 -51 -39 0
-57 -48 -42 -63 -62 -61 -47 -41 -60 -59 -58 -39 -51 -50 -49 -45 -44 -43 -66 -65 -64 0
-61 -62 -63 -42 -48 -57 -64 -65 -43 -49 -58 -66 -44 -50 -59 -45 -51 -60 -39 -41 -47 0
-61 -58 -49 -43 -65 -64 -57 -48 -42 -63 -62 -47 -41 -60 -59 -39 -51 -50 -45 -44 -66 0
-64 -65 -43 -49 -58 -61 -66 -44 -50 -59 -62 -45 -51 -60 -63 -39 -41 -42 -47 -48 -57 0
-64 -62 -59 -50 -44 -66 -61 -58 -49 -43 -65 -57 -48 -42 -63 -47 -41 -60 -39 -51 -45 0
-66 -44 -50 -59 -62 -64 -45 -51 -60 -63 -65 -39 -41 -42 -43 -47 -48 -49 -57 -58 -61 0
-45 -51 -60 -63 -65 -66 -39 -41 -42 -43 -44 -47 -48 -49 -50 -57 -58 -59 -61 -62 -64 0
-66 -65 -63 -60 -51 -45 -64 -62 -59 -50 -44 -61 -58 -49 -43 -57 -48 -42 -47 -41 -39 0
-40 -41 -42 -43 -44 -45 -52 -53 -54 -55 -56 -57 -58 -59 -60 -61 -62 -63 -64 -65 -66 0
-45 -44 -43 -42 -41 -40 -66 -65 -63 -60 -56 -64 -62 -59 -55 -61 -58 -54 -57 -53 -52 0
-40 -56 -55 -54 -53 -52 -45 -44 -43 -42 -41 -66 -65 -63 -60 -64 -62 -59 -61 -58 -57 0
-52 -53 -54 -55 -56 -40 -57 -58 -59 -60 -41 -61 -62 -63 -42 -64 -65 -43 -66 -44 -45 0
-52 -41 -60 -59 -58 -57 -40 -56 -55 -54 -53 -45 -44 -43 -42 -66 -65 -63 -64 -62 -61 0
-57 -58 -59 -60 -41 -52 -61 -62 -63 -42 -53 -64 -65 -43 -54 -66 -44 -55 -45 -56 -40 0
-57 -53 -42 -63 -62 -61 -52 -41 -60 -59 -58 -40 -56 -55 -54 -45 -44 -43 -66 -65 -64 0
-61 -62 -63 -42 -53 -57 -64 -65 -43 -54 -58 -66 -44 -55 -59 -45 -56 -60 -40 -41 -52 0
-61 -58 -54 -43 -65 -64 -57 -53 -42 -63 -62 -52 -41 -60 -59 -40 -56 -55 -45 -44 -66 0
-64 -65 -43 -54 -58 -61 -66 -44 -55 -59 -62 -45 -56 -60 -63 -40 -41 -42 -52 -53 -57 0
-64 -62 -59 -55 -44 -66 -61 -58 -54 -43 -65 -57 -53 -42 -63 -52 -41 -60 -40 -56 -45 0
-66 -44 -55 -59 -62 -64 -45 -56 -60 -63 -65 -40 -41 -42 -43 -52 -53 -54 -57 -58 -61 0
-45 -56 -60 -63 -65 -66 -40 -41 -42 -43 -44 -52 -53 -54 -55 -57 -58 -59 -61 -62 -64 0
-66 -65 -63 -60 -56 -45 -64 -62 -59 -55 -44 -61 -58 -54 -43 -57 -53 -42 -52 -41 -40 0
-46 -47 -48 -49 -50 -51 -52 -53 -54 -55 -56 -57 -58 -59 -60 -61 -62 -63 -64 -65 -66 0
-51 -50 -49 -48 -47 -46 -66 -65 -63 -60 -56 -64 -62 -59 -55 -61 -58 -54 -57 -53 -52 0
-46 -56 -55 -54 -53 -52 -51 -50 -49 -48 -47 -66 -65 -63 -60 -64 -62 -59 -61 -58 -57 0
-52 -53 -54 -55 -56 -46 -57 -58 -59 -60 -47 -61 -62 -63 -48 -64 -65 -49 -66 -50 -51 0
-52 -47 -60 -59 -58 -57 -46 -56 -55 -54 -53 -51 -50 -49 -48 -66 -65 -63 -64 -62 -61 0
-57 -58 -59 -60 -47 -52 -61 -62 -63 -48 -53 -64 -65 -49 -54 -66 -50 -55 -51 -56 -46 0
-57 -53 -48 -63 -62 -61 -52 -47 -60 -59 -58 -46 -56 -55 -54 -51 -50 -49 -66 -65 -64 0
-61 -62 -63 -48 -53 -57 -64 -65 -49 -54 -58 -66 -50 -55 -59 -51 -56 -60 -46 -47 -52 0
-61 -58 -54 -49 -65 -64 -57 -53 -48 -63 -62 -52 -47 -60 -59 -46 -56 -55 -51 -50 -66 0
-64 -65 -49 -54 -58 -61 -66 -50 -55 -59 -62 -51 -56 -60 -63 -46 -47 -48 -52 -53 -57 0
-64 -62 -59 -55 -50 -66 -61 -58 -54 -49 -65 -57 -53 -48 -63 -52 -47 -60 -46 -56 -51 0
-66 -50 -55 -59 -62 -64 -51 -56 -60 -63 -65 -46 -47 -48 -49 -52 -53 -54 -57 -58 -61 0
-51 -56 -60 -63 -65 -66 -46 -47 -48 -49 -50 -52 -53 -54 -55 -57 -58 -59 -61 -62 -64 0
-66 -65 -63 -60 -56 -51 -64 -62 -59 -55 -50 -61 -58 -54 -49 -57 -53 -48 -52 -47 -46 0
